 vasp.6.4.1 05Apr23 (build Jun 07 2023 15:38:11) complex

 executed on             LinuxIFC date 2023.10.05  10:15:38

 INCAR:
   GGA = PE
   PREC = Accu
   EDIFF = 1.e-5
   EDIFFG = -1.e-2
   ENCUT = 520.
   NELM = 100
   NELMDL = -10
   LASPH = .TRUE.
   LREAL = Auto
   LMAXMIX = 4
   ISPIN = 2
   LDIAG = .TRUE.
   LPLANE = .TRUE.
   IVDW = 12
   SIGMA = 0.03
   ISMEAR = 0
   NSW = 1000    number of steps for IOM
   IBRION = 1    ionic relax: 0-MD 1-quasi-New 2-CG
   ISIF = 2    ionic relaxation + stress tensor calcn.
   LCHARG = .FALSE.
   LWAVE = .FALSE.
   ALGO = V
   KPAR = 1
   NPAR = 4

 POTCAR:    PAW_PBE Li_sv_GW 25Mar2010
 POTCAR:    PAW_PBE P_GW 19Mar2012
 POTCAR:    PAW_PBE S_GW 19Mar2012
 POTCAR:    PAW_PBE Cl_GW 19Mar2012
|           W    W    AA    RRRRR   N    N  II  N    N   GGGG   !!!           |
|           W    W   A  A   R    R  NN   N  II  NN   N  G    G  !!!           |
|           W    W  A    A  R    R  N N  N  II  N N  N  G       !!!           |
|           W WW W  AAAAAA  RRRRR   N  N N  II  N  N N  G  GGG   !            |
|           WW  WW  A    A  R   R   N   NN  II  N   NN  G    G                |
|           W    W  A    A  R    R  N    N  II  N    N   GGGG   !!!           |
|     You use a magnetic or noncollinear calculation, but did not specify     |
|     the initial magnetic moment with the MAGMOM tag. Note that a            |
|     default of 1 will be used for all atoms. This ferromagnetic setup       |
|     may break the symmetry of the crystal, in particular it may rule        |
|     out finding an antiferromagnetic solution. Thence, we recommend         |
|     setting the initial magnetic moment manually or verifying carefully     |
|     that this magnetic setup is desired.                                    |

   TITEL  = PAW_PBE Li_sv_GW 25Mar2010
   POMASS =    7.010; ZVAL   =    3.000    mass and valenz
   ENMAX  =  433.699; ENMIN  =  325.274 eV

   TITEL  = PAW_PBE P_GW 19Mar2012
   POMASS =   30.974; ZVAL   =    5.000    mass and valenz
   ENMAX  =  255.040; ENMIN  =  191.280 eV

[...]

   TITEL  = PAW_PBE Cl_GW 19Mar2012
   POMASS =   35.453; ZVAL   =    7.000    mass and valenz
   ENMAX  =  262.472; ENMIN  =  196.854 eV

 Optimization of the real space projectors (new method)

 maximal supplied QI-value         = 25.13
 optimisation between [QCUT,QGAM] = [ 11.56, 23.12] = [ 37.43,149.72] Ry
 Optimized for a Real-space Cutoff    1.28 Angstroem

   l    n(q)    QCUT    max X(q) W(low)/X(q) W(high)/X(q)  e(spline)
   0      9    11.561    87.733    0.11E-03    0.32E-04    0.56E-06
   0      9    11.561    82.800    0.11E-03    0.35E-04    0.56E-06
   0      9    11.561     2.509    0.22E-03    0.42E-04    0.79E-06
   1      8    11.561    12.580    0.94E-04    0.26E-03    0.21E-06
   1      8    11.561     1.319    0.33E-04    0.15E-03    0.19E-06
   2      8    11.561     1.993    0.36E-04    0.89E-04    0.26E-06
 Optimization of the real space projectors (new method)

[...]

   l    n(q)    QCUT    max X(q) W(low)/X(q) W(high)/X(q)  e(spline)
   0     10    11.508     7.541    0.34E-04    0.13E-04    0.69E-07
   0     10    11.508     1.809    0.49E-04    0.27E-04    0.14E-06
   1     10    11.508     4.107    0.27E-05    0.41E-05    0.14E-06
   1     10    11.508     2.196    0.26E-05    0.25E-05    0.22E-06
   2      9    11.508     4.265    0.18E-03    0.11E-03    0.81E-06
   2      9    11.508     1.925    0.97E-04    0.76E-04    0.47E-06
 Optimization of the real space projectors (new method)

 maximal supplied QI-value         = 19.84
 optimisation between [QCUT,QGAM] = [ 11.51, 23.22] = [ 37.09,150.92] Ry
 Optimized for a Real-space Cutoff    1.21 Angstroem

   l    n(q)    QCUT    max X(q) W(low)/X(q) W(high)/X(q)  e(spline)
   0      8    11.508     6.761    0.57E-04    0.57E-04    0.35E-07
   0      8    11.508     1.642    0.14E-03    0.14E-03    0.91E-07
   1      8    11.508     3.519    0.20E-04    0.72E-04    0.47E-07
   1      8    11.508     2.150    0.27E-04    0.11E-03    0.89E-07
   2      7    11.508     2.976    0.19E-03    0.33E-03    0.16E-06
   2      7    11.508     1.494    0.14E-03    0.29E-03    0.14E-06
  PAW_PBE Li_sv_GW 25Mar2010            :
  PAW_PBE P_GW 19Mar2012                :
  PAW_PBE S_GW 19Mar2012                :
  PAW_PBE Cl_GW 19Mar2012               :

 POSCAR: Li24 P4 S20 Cl4
  positions in direct lattice
 exchange correlation table for  LEXCH =        8
   RHO(1)=    0.500       N(1)  =     2000
   RHO(2)=  100.500       N(2)  =     4000

 VTST: version 4.1, (05/19/21)

 CHAIN: initializing optimizer

 OPT: Using VASP QUASI-newton optimizer
 CHAIN: Read ICHAIN            0

 POSCAR: Li24 P4 S20 Cl4
  positions in direct lattice

 ion  position               nearest neighbor table
   1  0.977  0.250  0.250-
   2  0.976  0.750  0.750-
   3  0.023  0.250  0.750-
   4  0.023  0.750  0.250-
   5  0.250  0.250  0.977-
   6  0.251  0.749  0.023-
   7  0.750  0.250  0.024-
   8  0.750  0.750  0.977-
   9  0.250  0.977  0.249-
  10  0.250  0.023  0.750-
  11  0.749  0.977  0.750-
  12  0.750  0.023  0.250-
  13  0.250  0.750  0.476-
  14  0.250  0.250  0.523-
  15  0.750  0.750  0.523-
  16  0.750  0.250  0.477-
  17  0.250  0.477  0.750-
  18  0.250  0.523  0.250-
  19  0.750  0.477  0.250-
  20  0.750  0.523  0.750-
  21  0.477  0.250  0.750-
  22  0.477  0.750  0.250-
  23  0.524  0.250  0.250-
  24  0.523  0.749  0.751-
  25  0.500  0.500  0.500-  44 2.05  42 2.05  43 2.05  41 2.05
  26  0.500  0.000  1.000-  38 2.05  40 2.05  39 2.05  37 2.05
  27  1.000  0.500  1.000-  34 2.05  36 2.05  35 2.05  33 2.05
  28  1.000  1.000  0.500-  31 2.05  29 2.05  32 2.05  30 2.05
  29  0.118  0.882  0.618-  28 2.05
  30  0.118  0.118  0.382-  28 2.05
  31  0.882  0.882  0.382-  28 2.05
  32  0.882  0.118  0.618-  28 2.05
  33  0.882  0.618  0.118-  27 2.05
  34  0.882  0.382  0.882-  27 2.05
  35  0.118  0.618  0.882-  27 2.05
  36  0.118  0.382  0.118-  27 2.05
  37  0.618  0.118  0.882-  26 2.05
  38  0.618  0.882  0.118-  26 2.05
  39  0.382  0.118  0.118-  26 2.05
  40  0.382  0.882  0.882-  26 2.05
  41  0.618  0.618  0.382-  25 2.05
  42  0.618  0.382  0.618-  25 2.05
  43  0.382  0.618  0.618-  25 2.05
  44  0.382  0.382  0.382-  25 2.05
  45  0.750  0.750  0.750-
  46  0.750  0.250  0.250-
  47  0.250  0.750  0.250-
  48  0.250  0.250  0.750-
  49  0.000  1.000  1.000-
  50  0.000  0.500  0.500-
  51  0.500  1.000  0.500-
  52  0.500  0.500  0.000-

  LATTYP: Found a simple cubic cell.
 ALAT       =    10.0236290993

  Lattice vectors:

 A1 = (  10.0236290993,   0.0000000000,   0.0000000000)
 A2 = (   0.0000000000,  10.0236290993,   0.0000000000)
 A3 = (   0.0000000000,   0.0000000000,  10.0236290993)

Analysis of symmetry for initial positions (statically):
 Subroutine PRICEL returns:
 Original cell was already a primitive cell.

 Routine SETGRP: Setting up the symmetry group for a
 simple cubic supercell.

 Subroutine GETGRP returns: Found  2 space group operations
 (whereof  1 operations were pure point group operations)
 out of a pool of 48 trial point group operations.

The static configuration has the point symmetry C_1 .
 The point group associated with its full space group is C_1h.

Analysis of symmetry for dynamics (positions and initial velocities):
 Subroutine PRICEL returns:
 Original cell was already a primitive cell.

[...]

The dynamic configuration has the point symmetry C_1 .
 The point group associated with its full space group is C_1h.

Analysis of structural, dynamic, and magnetic symmetry:
 Subroutine PRICEL returns:
 Original cell was already a primitive cell.

 Routine SETGRP: Setting up the symmetry group for a
 simple cubic supercell.

 Subroutine GETGRP returns: Found  2 space group operations
 (whereof  1 operations were pure point group operations)
 out of a pool of 48 trial point group operations.

The overall configuration has the point symmetry C_1 .
 The point group associated with its full space group is C_1h.

 Subroutine INISYM returns: Found  2 space group operations
 (whereof  1 operations are pure point group operations),
 and found     1 'primitive' translations

                                     Primitive cell

  volume of cell :    1007.1055

  direct lattice vectors                    reciprocal lattice vectors
    10.023629099  0.000000000  0.000000000     0.099764266  0.000000000  0.000000000
     0.000000000 10.023629099  0.000000000     0.000000000  0.099764266  0.000000000
     0.000000000  0.000000000 10.023629099     0.000000000  0.000000000  0.099764266

  length of vectors
    10.023629099 10.023629099 10.023629099     0.099764266  0.099764266  0.099764266

  position of ions in fractional coordinates (direct lattice)
     0.977122743  0.250120030  0.250132037
     0.976473267  0.750292540  0.750095821
     0.023250075  0.249865050  0.750189433
     0.023375213  0.750231397  0.249628278
     0.249997357  0.249889253  0.976854922
     0.251397096  0.748603387  0.022877347
     0.749900499  0.250249914  0.023519112
     0.750314967  0.750302483  0.976966877
     0.249847049  0.976707623  0.249497311
     0.249760189  0.023251971  0.749760159
     0.749497341  0.976707623  0.749847018
     0.750048718  0.023237994  0.250048687
     0.250095852  0.750292540  0.476473236
     0.250189464  0.249865050  0.523250044
     0.749628308  0.750231397  0.523375183
     0.750132068  0.250120030  0.477122712
     0.249586620  0.476752184  0.749586589
     0.250058185  0.523190812  0.250004880
     0.750107912  0.476748183  0.250107881
     0.750004910  0.523190812  0.750058154
     0.476854953  0.249889253  0.749997327
     0.476966908  0.750302483  0.250314937
     0.523519142  0.250249914  0.249900468
     0.522880176  0.748604243  0.751401460
     0.499794542  0.500071674  0.499830925
     0.499959023  0.000220620  0.999958992
     0.999830955  0.500071674  0.999794511
     0.999885779  0.999929688  0.499885748
     0.117955717  0.881757769  0.617955686
     0.118252911  0.117973606  0.381901294
     0.881819827  0.881755902  0.381819796
     0.881901325  0.117973606  0.618252880
     0.881837127  0.618111645  0.118148085
     0.881716560  0.381824965  0.881879441
     0.117856251  0.618238141  0.881600273
     0.118123197  0.382115324  0.117882779
     0.618258021  0.118377936  0.882036694
     0.618026819  0.882046923  0.118026789
     0.382036725  0.118377936  0.118257990
     0.381747907  0.882325618  0.881747876
     0.618148116  0.618111645  0.381837096
     0.617882810  0.382115324  0.618123166
     0.381600304  0.618238141  0.617856220
     0.381879472  0.381824965  0.381716529
     0.749682344  0.749943585  0.750171324
     0.750274648  0.250027179  0.250274618
     0.250171355  0.749943585  0.249682313
     0.250062061  0.250014189  0.750062030
     0.000110318  0.999918103  0.999860213
     0.000113269  0.500007927  0.500113239
     0.499860244  0.999918103  0.500110287
     0.500203363  0.499868058  0.000203333

  ion indices of the primitive-cell ions
   primitive index   ion index
                 1           1
                 2           2
                 3           3
                 4           4
                 5           5
[...]
     13     -43.2930      1.00000
     14     -43.2928      1.00000
     15     -43.2927      1.00000
     16     -43.2926      1.00000
     17     -43.2914      1.00000
     18     -43.2913      1.00000
     19     -43.2908      1.00000
     20     -43.2908      1.00000
     21     -43.2907      1.00000
     22     -43.2906      1.00000
     23     -43.2902      1.00000
     24     -43.2900      1.00000
     25     -14.1213      1.00000
     26     -14.1066      1.00000
     27     -14.1065      1.00000
     28     -14.1055      1.00000
     29     -11.2646      1.00000
     30     -11.2640      1.00000
     31     -11.2637      1.00000
     32     -11.2015      1.00000
     33     -11.1379      1.00000
     34     -11.1353      1.00000
     35     -11.1350      1.00000
     36     -11.1112      1.00000
     37     -11.1110      1.00000
     38     -11.1105      1.00000
     39     -11.1095      1.00000
     40     -11.1089      1.00000
     41     -11.0828      1.00000
     42     -11.0743      1.00000
     43     -11.0720      1.00000
     44     -11.0716      1.00000
     45      -9.6540      1.00000
     46      -9.6536      1.00000
     47      -9.6534      1.00000
     48      -9.6500      1.00000
     49      -7.1123      1.00000
     50      -6.8210      1.00000
     51      -6.8209      1.00000
     52      -6.8197      1.00000
     53      -4.1681      1.00000
     54      -4.1680      1.00000
     55      -4.1678      1.00000
     56      -3.8855      1.00000
     57      -3.7241      1.00000
     58      -3.7240      1.00000
     59      -3.6237      1.00000
     60      -3.6236      1.00000
[...]
    162       8.2754      0.00000
    163       8.3113      0.00000
    164       8.3354      0.00000
    165       8.4148      0.00000
    166       8.4563      0.00000
    167       8.5189      0.00000
    168       8.5645      0.00000
    169       8.7026      0.00000
    170       8.7621      0.00000
    171       8.8675      0.00000
    172       8.8960      0.00000
    173       8.9928      0.00000
    174       9.1597      0.00000
    175       9.6072      0.00000
    176       9.9086      0.00000

[...]

 soft charge-density along one line, spin component           2
         0         1         2         3         4         5         6         7         8         9
 total charge-density along one line

------------------------ aborting loop because EDIFF is reached ----------------------------------------

         DFTD3 V3.0 Rev 1
 Edisp (eV)  -12.09576

 E6    (eV) :    -7.4484
 E8    (eV) :    -4.6474
 % E8        : 38.42

  FORCE on cell =-STRESS in cart. coord.  units (eV):
  Direction    XX          YY          ZZ          XY          YZ          ZX
  Alpha Z   269.54227   269.54227   269.54227
  Ewald   -2759.55386 -2759.34083 -2759.55725    -0.55832    -0.55729     0.66604
  Hartree   843.96560   844.07948   843.96503    -0.33187    -0.33170     0.32513
  E(xc)    -946.88569  -946.88561  -946.88569     0.00019     0.00019     0.00003
  Local   -1760.05244 -1760.39526 -1760.04932     0.91586     0.91490    -0.98675
  n-local  1481.11883  1481.13061  1481.11715     0.26641    -0.31839     0.02992
  augment  -356.05800  -356.06152  -356.05802     0.00686     0.00686    -0.00474
  Kinetic  3240.54720  3240.58225  3240.54627     0.45552    -0.58962     0.02654
  Fock        0.00000     0.00000     0.00000     0.00000     0.00000     0.00000
  vdW       -12.84855   -12.84851   -12.84855     0.00020     0.00020    -0.00023
  Total      -0.22638    -0.19712    -0.22638    -0.06001    -0.06001     0.05594
  in kB      -0.36014    -0.31360    -0.36014    -0.09546    -0.09546     0.08900

 VOLUME and BASIS-vectors are now :
  energy-cutoff  :      520.00
  volume of cell :     1007.11
      direct lattice vectors                 reciprocal lattice vectors
    10.023629099  0.000000000  0.000000000     0.099764266  0.000000000  0.000000000
     0.000000000 10.023629099  0.000000000     0.000000000  0.099764266  0.000000000
     0.000000000  0.000000000 10.023629099     0.000000000  0.000000000  0.099764266

  length of vectors
    10.023629099 10.023629099 10.023629099     0.099764266  0.099764266  0.099764266

 FORCES acting on ions
    electron-ion (+dipol)            ewald-force                    non-local-force                 convergence-correction
   -.682E+01 -.258E-01 -.145E-01   0.612E+01 0.221E-01 0.172E-01   0.691E+00 0.599E-02 -.224E-02   0.938E-03 -.904E-03 -.158E-03
   -.675E+01 -.122E+00 -.195E-01   0.606E+01 0.116E+00 0.176E-01   0.685E+00 0.926E-02 0.326E-02   -.374E-03 -.149E-02 -.451E-03
   0.682E+01 0.690E-01 -.419E-02   -.612E+01 -.689E-01 0.907E-03   -.691E+00 -.188E-02 0.310E-02   0.382E-03 0.227E-03 0.288E-03
   0.677E+01 -.128E+00 0.459E-01   -.607E+01 0.121E+00 -.486E-01   -.690E+00 0.111E-01 -.248E-02   0.557E-03 -.210E-02 0.243E-02
   0.958E-01 0.358E-01 -.677E+01   -.935E-01 -.324E-01 0.607E+01   -.523E-02 -.365E-02 0.689E+00   0.187E-02 -.386E-04 0.776E-03
   -.363E+00 0.409E+00 0.683E+01   0.339E+00 -.371E+00 -.612E+01   0.422E-01 -.466E-01 -.695E+00   -.469E-02 0.411E-02 0.160E-03
   -.325E-01 0.329E-01 0.674E+01   0.403E-01 -.392E-01 -.605E+01   -.634E-02 0.558E-02 -.686E+00   -.110E-02 0.425E-03 0.439E-03
   -.162E+00 -.191E+00 -.682E+01   0.158E+00 0.185E+00 0.612E+01   0.826E-02 0.113E-01 0.689E+00   -.863E-03 -.258E-02 0.111E-02
   0.216E+00 -.679E+01 0.124E+00   -.209E+00 0.610E+01 -.124E+00   -.132E-01 0.691E+00 -.557E-02   0.270E-02 -.103E-02 0.258E-02
   -.293E-03 0.684E+01 -.258E-03   0.298E-02 -.614E+01 0.287E-02   -.307E-02 -.690E+00 -.307E-02   0.544E-03 0.236E-03 0.547E-03
   0.124E+00 -.679E+01 0.216E+00   -.124E+00 0.610E+01 -.209E+00   -.557E-02 0.691E+00 -.132E-01   0.258E-02 -.103E-02 0.270E-02
   0.424E-02 0.677E+01 0.423E-02   0.882E-03 -.607E+01 0.945E-03   -.572E-02 -.690E+00 -.572E-02   0.344E-03 -.341E-03 0.340E-03
   -.196E-01 -.122E+00 -.675E+01   0.179E-01 0.116E+00 0.606E+01   0.326E-02 0.926E-02 0.685E+00   -.456E-03 -.149E-02 -.373E-03
   -.421E-02 0.690E-01 0.682E+01   0.953E-03 -.689E-01 -.612E+01   0.310E-02 -.188E-02 -.691E+00   0.284E-03 0.227E-03 0.385E-03
   0.459E-01 -.128E+00 0.677E+01   -.488E-01 0.121E+00 -.607E+01   -.248E-02 0.111E-01 -.690E+00   0.244E-02 -.210E-02 0.560E-03
   -.145E-01 -.258E-01 -.682E+01   0.172E-01 0.221E-01 0.612E+01   -.224E-02 0.599E-02 0.691E+00   -.154E-03 -.905E-03 0.940E-03
   0.671E-01 -.678E+01 0.671E-01   -.710E-01 0.608E+01 -.711E-01   -.324E-02 0.694E+00 -.324E-02   0.298E-02 -.142E-02 0.298E-02
   0.153E+00 0.681E+01 -.878E-01   -.152E+00 -.611E+01 0.889E-01   -.464E-02 -.692E+00 0.111E-02   0.192E-02 -.404E-03 -.733E-03
   -.100E+00 -.682E+01 -.100E+00   0.103E+00 0.612E+01 0.103E+00   -.523E-03 0.691E+00 -.523E-03   -.921E-03 -.112E-02 -.925E-03
   -.878E-01 0.681E+01 0.153E+00   0.889E-01 -.611E+01 -.152E+00   0.111E-02 -.692E+00 -.464E-02   -.729E-03 -.404E-03 0.192E-02
   -.677E+01 0.358E-01 0.958E-01   0.607E+01 -.324E-01 -.936E-01   0.689E+00 -.365E-02 -.523E-02   0.778E-03 -.387E-04 0.187E-02
   -.682E+01 -.191E+00 -.162E+00   0.612E+01 0.185E+00 0.158E+00   0.689E+00 0.113E-01 0.826E-02   0.111E-02 -.258E-02 -.867E-03
   0.674E+01 0.329E-01 -.325E-01   -.605E+01 -.392E-01 0.404E-01   -.686E+00 0.558E-02 -.634E-02   0.442E-03 0.425E-03 -.111E-02
   0.682E+01 0.408E+00 -.376E+00   -.612E+01 -.373E+00 0.338E+00   -.695E+00 -.466E-01 0.422E-01   0.163E-03 0.411E-02 -.469E-02
   0.154E-01 -.423E-01 -.834E-02   -.171E-01 0.391E-01 0.793E-02   0.386E-02 0.212E-02 0.404E-02   0.332E-02 0.117E-02 0.180E-02
   0.874E-01 0.306E-01 0.873E-01   -.846E-01 -.265E-01 -.842E-01   -.188E-02 -.760E-02 -.188E-02   0.996E-03 0.206E-02 0.992E-03
   -.830E-02 -.422E-01 0.154E-01   0.777E-02 0.388E-01 -.170E-01   0.404E-02 0.212E-02 0.386E-02   0.180E-02 0.117E-02 0.332E-02
   0.143E+00 -.126E+00 0.143E+00   -.139E+00 0.113E+00 -.139E+00   -.303E-02 0.129E-01 -.303E-02   0.255E-02 0.401E-03 0.255E-02
   -.450E+02 0.452E+02 -.450E+02   0.483E+02 -.485E+02 0.483E+02   -.329E+01 0.330E+01 -.329E+01   -.203E-02 0.258E-02 -.202E-02
   -.451E+02 -.450E+02 0.450E+02   0.484E+02 0.483E+02 -.483E+02   -.331E+01 -.329E+01 0.329E+01   0.605E-03 -.118E-02 0.231E-02
   0.450E+02 0.452E+02 0.450E+02   -.483E+02 -.485E+02 -.483E+02   0.329E+01 0.330E+01 0.329E+01   -.309E-02 -.445E-02 -.309E-02
   0.450E+02 -.450E+02 -.451E+02   -.483E+02 0.483E+02 0.484E+02   0.329E+01 -.329E+01 -.331E+01   0.231E-02 -.118E-02 0.613E-03
   0.449E+02 -.450E+02 -.453E+02   -.482E+02 0.483E+02 0.486E+02   0.329E+01 -.329E+01 -.331E+01   0.132E-02 -.109E-02 -.565E-03
   0.450E+02 0.452E+02 0.451E+02   -.483E+02 -.485E+02 -.484E+02   0.329E+01 0.330E+01 0.328E+01   -.589E-02 -.336E-02 -.304E-02
   -.449E+02 -.452E+02 0.450E+02   0.482E+02 0.485E+02 -.484E+02   -.327E+01 -.331E+01 0.331E+01   -.238E-02 0.400E-03 0.115E-02
   -.450E+02 0.451E+02 -.451E+02   0.483E+02 -.484E+02 0.484E+02   -.330E+01 0.329E+01 -.329E+01   -.196E-02 0.461E-02 -.249E-02
   -.452E+02 -.450E+02 0.450E+02   0.485E+02 0.483E+02 -.483E+02   -.330E+01 -.330E+01 0.328E+01   -.434E-03 0.186E-02 0.244E-02
   -.451E+02 0.450E+02 -.451E+02   0.484E+02 -.483E+02 0.484E+02   -.329E+01 0.329E+01 -.329E+01   -.817E-04 0.273E-02 -.914E-04
   0.450E+02 -.450E+02 -.452E+02   -.483E+02 0.483E+02 0.485E+02   0.328E+01 -.330E+01 -.330E+01   0.244E-02 0.186E-02 -.442E-03
   0.453E+02 0.446E+02 0.453E+02   -.486E+02 -.479E+02 -.486E+02   0.332E+01 0.326E+01 0.332E+01   -.223E-02 0.251E-02 -.223E-02
   -.453E+02 -.450E+02 0.449E+02   0.486E+02 0.483E+02 -.482E+02   -.331E+01 -.329E+01 0.329E+01   -.555E-03 -.109E-02 0.131E-02
   -.451E+02 0.451E+02 -.450E+02   0.484E+02 -.484E+02 0.483E+02   -.329E+01 0.329E+01 -.330E+01   -.248E-02 0.461E-02 -.195E-02
   0.450E+02 -.452E+02 -.449E+02   -.484E+02 0.485E+02 0.482E+02   0.331E+01 -.331E+01 -.327E+01   0.115E-02 0.399E-03 -.237E-02
   0.451E+02 0.452E+02 0.450E+02   -.484E+02 -.485E+02 -.483E+02   0.328E+01 0.330E+01 0.329E+01   -.304E-02 -.337E-02 -.589E-02
   0.663E-01 -.152E+00 0.273E+00   -.714E-01 0.155E+00 -.277E+00   0.636E-02 -.254E-02 0.386E-02   0.278E-03 -.894E-03 -.711E-03
   -.217E+00 0.189E+00 -.217E+00   0.227E+00 -.194E+00 0.227E+00   -.837E-02 0.444E-02 -.837E-02   -.163E-02 0.370E-03 -.164E-02
   0.273E+00 -.152E+00 0.666E-01   -.276E+00 0.155E+00 -.725E-01   0.386E-02 -.254E-02 0.636E-02   -.720E-03 -.894E-03 0.269E-03
   -.407E-01 -.566E-01 -.406E-01   0.444E-01 0.601E-01 0.443E-01   -.566E-02 -.269E-02 -.566E-02   0.109E-02 -.104E-02 0.110E-02
   -.453E-01 -.144E-01 -.130E+00   0.505E-01 0.109E-01 0.129E+00   -.832E-02 0.667E-02 0.299E-02   0.197E-02 -.204E-02 -.947E-03
   0.169E+00 -.833E-01 0.169E+00   -.169E+00 0.904E-01 -.169E+00   0.114E-02 -.152E-01 0.114E-02   -.608E-03 0.508E-02 -.603E-03
   -.130E+00 -.142E-01 -.453E-01   0.129E+00 0.104E-01 0.506E-01   0.299E-02 0.667E-02 -.832E-02   -.942E-03 -.204E-02 0.197E-02
   0.102E+00 0.105E+00 0.102E+00   -.969E-01 -.117E+00 -.966E-01   -.115E-01 0.290E-01 -.115E-01   0.449E-02 -.108E-01 0.449E-02
   0.423E-01 0.106E-01 0.366E-01   0.197E-13 -.941E-13 0.389E-13   -.332E-01 -.172E-01 -.332E-01   0.700E-02 -.118E-01 0.700E-02

 POSITION                                       TOTAL-FORCE (eV/Angst)
      9.79405      2.50731      2.50718        -0.001878      0.001692      0.000047
      9.78787      7.52089      7.51870         0.000924      0.001479      0.000743
      0.23292      2.50445      7.51962        -0.000888     -0.001161     -0.000168
      0.23418      7.52026      2.50189        -0.000953      0.002598     -0.003048
      2.50570      2.50485      9.79144        -0.001333      0.000227     -0.001531
      2.52039      7.50328      0.22940         0.005531     -0.005245      0.001040
      7.51675      2.50845      0.23559         0.000181      0.000089     -0.001079
      7.52104      7.52111      9.79257         0.002269      0.003330     -0.001385
      2.50405      9.79032      2.50054        -0.003564      0.001626     -0.003230
      2.50344      0.23304      7.51525        -0.000062      0.000026     -0.000062
      7.51236      9.79032      7.51586        -0.003230      0.001626     -0.003564
      7.51809      0.23295      2.50627        -0.000503      0.000535     -0.000503
      2.50688      7.52089      4.77605         0.000743      0.001479      0.000924
      2.50780      2.50445      5.24473        -0.000168     -0.001161     -0.000888
      7.51370      7.52026      5.24599        -0.003048      0.002598     -0.000953
      7.51899      2.50731      4.78223         0.000047      0.001692     -0.001878
      2.50136      4.77896      7.51317        -0.004347      0.001682     -0.004347
      2.50622      5.24431      2.50603        -0.002255      0.000548      0.001226
      7.51889      4.77893      2.50708         0.000604      0.001209      0.000604
      7.51785      5.24431      7.51804         0.001226      0.000548     -0.002255
      4.77963      2.50485      7.51751        -0.001531      0.000227     -0.001333
      4.78075      7.52111      2.50923        -0.001385      0.003330      0.002269
      5.24741      2.50845      2.50493        -0.001079      0.000089      0.000181
      5.24124      7.50328      7.53225         0.001040     -0.005245      0.005531
      5.01038      5.01251      5.01067         0.005321      0.000382      0.005121
      5.01160      0.00203     10.02341         0.001751     -0.001257      0.001751
     10.02249      5.01251     10.02219         0.005121      0.000382      0.005321
     10.02288     10.02299      5.01107         0.003482      0.001333      0.003482
      1.18249      8.83826      6.19430         0.000837     -0.000576      0.000837
      1.18494      1.18241      3.82806        -0.002167     -0.000718      0.000195
      8.83916      8.83866      3.82735        -0.000749     -0.000555     -0.000749
      8.83988      1.18241      6.19676         0.000195     -0.000718     -0.002167
      8.83935      6.19558      1.18405         0.001340     -0.001271     -0.001288
      8.83834      3.82744      8.83977         0.000640     -0.000840     -0.000634
      1.18128      6.19674      8.83707         0.000130     -0.001401      0.002058
      1.18421      3.82983      1.18179         0.000938     -0.002084      0.001191
      6.19695      1.18627      8.84124        -0.001471     -0.001827      0.000219
      6.19494      8.84103      1.18313         0.000880     -0.002236      0.000880
      3.82942      1.18627      1.18513         0.000219     -0.001827     -0.001471
      3.82673      8.84395      8.83855         0.000534     -0.002192      0.000534
      6.19586      6.19558      3.82754        -0.001288     -0.001271      0.001340
      6.19360      3.82983      6.19602         0.001191     -0.002084      0.000938
      3.82526      6.19674      6.19309         0.002058     -0.001401      0.000130
      3.82795      3.82744      3.82653        -0.000634     -0.000840      0.000640
      7.51463      7.51717      7.51940         0.000859      0.000484     -0.000603
      7.52041      2.50609      2.50860        -0.000893      0.000156     -0.000893
      2.50758      7.51717      2.50282        -0.000603      0.000484      0.000859
      2.50638      2.50606      7.51820        -0.001028      0.000247     -0.001028
      0.00090     10.02297     10.02226        -0.001371      0.001273      0.000329
      0.00115      5.01158      5.01297         0.000229     -0.002510      0.000229
      5.01044     10.02297      5.01272         0.000329      0.001273     -0.001371
      5.01359      5.01116      0.00177        -0.002188      0.005777     -0.002188
    total drift:                                0.016183     -0.018445      0.010451

  FREE ENERGIE OF THE ION-ELECTRON SYSTEM (eV)
  free  energy   TOTEN  =      -268.23184400 eV

  energy  without entropy=     -268.23184400  energy(sigma->0) =     -268.23184400

 d Force = 0.2738901E-04[ 0.113E-04, 0.435E-04]  d Energy = 0.3611664E-04-0.873E-05
 d Force = 0.2102629E-01[ 0.209E-01, 0.211E-01]  d Ewald  = 0.2102630E-01-0.951E-08

 stress matrix after NEB project (eV)
     -0.22638     -0.06001      0.05594
     -0.06001     -0.19712     -0.06001
      0.05594     -0.06001     -0.22638
  FORCES: max atom, RMS     0.007693    0.003437
  FORCE total and by dimension    0.024785    0.005777
  Stress total and by dimension    0.402512    0.226381
 Quasi-Newton relaxation of ions (Broydens 2nd method)
  g(Force)  = 0.296E-04   g(Stress)= 0.000E+00

 retain information from N=  2 steps
 eigenvalues of (default step * inverse Hessian matrix)
  average eigenvalue of G=   1.9557
 eigenvalue spectrum of G is  0.4738  3.4377

 reached required accuracy - stopping structural energy minimisation