 vasp.6.4.1 05Apr23 (build Jun 07 2023 15:38:11) complex

 executed on             LinuxIFC date 2023.10.16  22:19:37

 INCAR:
   GGA = PE
   PREC = Accu
   EDIFF = 1.e-6
   EDIFFG = -1.e-3
   ENCUT = 520.
   NELM = 100
   NELMDL = -10
   LASPH = .TRUE.
   LREAL = Auto
   LMAXMIX = 4
   ISPIN = 2
   LDIAG = .TRUE.
   LPLANE = .TRUE.
   IVDW = 12
   SIGMA = 0.03
   ISMEAR = 0
   NSW = 1000    number of steps for IOM
   IBRION = 2    ionic relax: 0-MD 1-quasi-New 2-CG
   ISIF = 2    ionic relaxation + stress tensor calcn.
   LCHARG = .FALSE.
   LWAVE = .FALSE.
   ALGO = F
   KPAR = 1
   NPAR = 4
   POTIM = 0.2

 POTCAR:    PAW_PBE Li_sv_GW 25Mar2010
 POTCAR:    PAW_PBE P_GW 19Mar2012
 POTCAR:    PAW_PBE S_GW 19Mar2012
 POTCAR:    PAW_PBE Cl_GW 19Mar2012
|           W    W    AA    RRRRR   N    N  II  N    N   GGGG   !!!           |
|           W    W   A  A   R    R  NN   N  II  NN   N  G    G  !!!           |
|           W    W  A    A  R    R  N N  N  II  N N  N  G       !!!           |
|           W WW W  AAAAAA  RRRRR   N  N N  II  N  N N  G  GGG   !            |
|           WW  WW  A    A  R   R   N   NN  II  N   NN  G    G                |
|           W    W  A    A  R    R  N    N  II  N    N   GGGG   !!!           |
|     You use a magnetic or noncollinear calculation, but did not specify     |
|     the initial magnetic moment with the MAGMOM tag. Note that a            |
|     default of 1 will be used for all atoms. This ferromagnetic setup       |
|     may break the symmetry of the crystal, in particular it may rule        |
|     out finding an antiferromagnetic solution. Thence, we recommend         |
|     setting the initial magnetic moment manually or verifying carefully     |
|     that this magnetic setup is desired.                                    |

   TITEL  = PAW_PBE Li_sv_GW 25Mar2010
   POMASS =    7.010; ZVAL   =    3.000    mass and valenz
   ENMAX  =  433.699; ENMIN  =  325.274 eV

   TITEL  = PAW_PBE P_GW 19Mar2012
   POMASS =   30.974; ZVAL   =    5.000    mass and valenz
   ENMAX  =  255.040; ENMIN  =  191.280 eV

[...]

   TITEL  = PAW_PBE Cl_GW 19Mar2012
   POMASS =   35.453; ZVAL   =    7.000    mass and valenz
   ENMAX  =  262.472; ENMIN  =  196.854 eV

 Optimization of the real space projectors (new method)

 maximal supplied QI-value         = 25.13
 optimisation between [QCUT,QGAM] = [ 11.56, 23.12] = [ 37.43,149.72] Ry
 Optimized for a Real-space Cutoff    1.28 Angstroem

   l    n(q)    QCUT    max X(q) W(low)/X(q) W(high)/X(q)  e(spline)
   0      9    11.561    87.733    0.11E-03    0.32E-04    0.56E-06
   0      9    11.561    82.800    0.11E-03    0.35E-04    0.56E-06
   0      9    11.561     2.509    0.22E-03    0.42E-04    0.79E-06
   1      8    11.561    12.580    0.94E-04    0.26E-03    0.21E-06
   1      8    11.561     1.319    0.33E-04    0.15E-03    0.19E-06
   2      8    11.561     1.993    0.36E-04    0.89E-04    0.26E-06
 Optimization of the real space projectors (new method)

[...]

   l    n(q)    QCUT    max X(q) W(low)/X(q) W(high)/X(q)  e(spline)
   0     10    11.508     7.541    0.34E-04    0.13E-04    0.69E-07
   0     10    11.508     1.809    0.49E-04    0.27E-04    0.14E-06
   1     10    11.508     4.107    0.27E-05    0.41E-05    0.14E-06
   1     10    11.508     2.196    0.26E-05    0.25E-05    0.22E-06
   2      9    11.508     4.265    0.18E-03    0.11E-03    0.81E-06
   2      9    11.508     1.925    0.97E-04    0.76E-04    0.47E-06
 Optimization of the real space projectors (new method)

 maximal supplied QI-value         = 19.84
 optimisation between [QCUT,QGAM] = [ 11.51, 23.22] = [ 37.09,150.92] Ry
 Optimized for a Real-space Cutoff    1.21 Angstroem

   l    n(q)    QCUT    max X(q) W(low)/X(q) W(high)/X(q)  e(spline)
   0      8    11.508     6.761    0.57E-04    0.57E-04    0.35E-07
   0      8    11.508     1.642    0.14E-03    0.14E-03    0.91E-07
   1      8    11.508     3.519    0.20E-04    0.72E-04    0.47E-07
   1      8    11.508     2.150    0.27E-04    0.11E-03    0.89E-07
   2      7    11.508     2.976    0.19E-03    0.33E-03    0.16E-06
   2      7    11.508     1.494    0.14E-03    0.29E-03    0.14E-06
  PAW_PBE Li_sv_GW 25Mar2010            :
  PAW_PBE P_GW 19Mar2012                :
  PAW_PBE S_GW 19Mar2012                :
  PAW_PBE Cl_GW 19Mar2012               :

 POSCAR: Li24 P4 S20 Cl4
  positions in direct lattice
  velocities in cartesian coordinates
 exchange correlation table for  LEXCH =        8
   RHO(1)=    0.500       N(1)  =     2000
   RHO(2)=  100.500       N(2)  =     4000

 VTST: version 4.1, (05/19/21)

 CHAIN: initializing optimizer

 OPT: Using VASP Conjugate-Gradient optimizer
 CHAIN: Read ICHAIN            0

 POSCAR: Li24 P4 S20 Cl4
  positions in direct lattice
  velocities in cartesian coordinates

 ion  position               nearest neighbor table
   1  0.984  0.225  0.275-  46 2.21
   2  0.978  0.752  0.747-
   3  0.024  0.296  0.683-
   4  0.024  0.817  0.203-
   5  0.271  0.284  0.989-
   6  0.224  0.805  0.015-
   7  0.831  0.190  0.026-
   8  0.812  0.842  0.964-
   9  0.335  0.952  0.325-
  10  0.185  0.034  0.817-
  11  0.662  0.974  0.717-
  12  0.705  0.013  0.296-
  13  0.185  0.683  0.466-
  14  0.335  0.175  0.548-
  15  0.662  0.783  0.526-
  16  0.705  0.204  0.486-
  17  0.224  0.485  0.695-
  18  0.271  0.511  0.216-
  19  0.831  0.473  0.310-
  20  0.812  0.536  0.658-
  21  0.479  0.321  0.811-
  22  0.479  0.689  0.179-
  23  0.536  0.307  0.193-
  24  0.679  0.579  0.921-
  25  0.499  0.499  0.494-  43 2.02  44 2.05  41 2.06  42 2.07
  26  0.499  0.005  0.001-  40 2.02  39 2.05  37 2.06  38 2.07
  27  0.992  0.506  0.994-  35 2.04  34 2.05  33 2.05  36 2.06
  28  0.006  0.988  0.512-  29 2.05  32 2.06  31 2.06  30 2.06
  29  0.141  0.872  0.628-  28 2.05
  30  0.140  0.104  0.395-  28 2.06
  31  0.881  0.863  0.394-  28 2.06
  32  0.881  0.105  0.637-  28 2.06
  33  0.867  0.631  0.110-  27 2.05
  34  0.867  0.390  0.868-  27 2.05
  35  0.130  0.618  0.882-  27 2.04
  36  0.097  0.374  0.126-  27 2.06
  37  0.628  0.138  0.895-  26 2.06
  38  0.622  0.875  0.117-  26 2.07
  39  0.377  0.116  0.134-  26 2.05
  40  0.391  0.892  0.862-  26 2.02
  41  0.628  0.605  0.362-  25 2.06
  42  0.622  0.383  0.625-  25 2.07
  43  0.391  0.638  0.608-  25 2.02
  44  0.377  0.365  0.384-  25 2.05
  45  0.744  0.747  0.753-
  46  0.757  0.244  0.255-   1 2.21
  47  0.252  0.743  0.243-
  48  0.252  0.257  0.757-
  49  0.012  0.979  0.005-
  50  0.012  0.495  0.520-
  51  0.535  0.007  0.493-
  52  0.472  0.479  0.021-

  LATTYP: Found a simple cubic cell.
 ALAT       =     9.6837536627

  Lattice vectors:

 A1 = (   9.6837536627,   0.0000000000,   0.0000000000)
 A2 = (   0.0000000000,   9.6837536627,   0.0000000000)
 A3 = (   0.0000000000,   0.0000000000,   9.6837536627)

Analysis of symmetry for initial positions (statically):
 Subroutine PRICEL returns:
 Original cell was already a primitive cell.

 Routine SETGRP: Setting up the symmetry group for a
 simple cubic supercell.

 Subroutine GETGRP returns: Found  2 space group operations
 (whereof  1 operations were pure point group operations)
 out of a pool of 48 trial point group operations.

The static configuration has the point symmetry C_1 .
 The point group associated with its full space group is C_1h.

Analysis of symmetry for dynamics (positions and initial velocities):
 Subroutine PRICEL returns:
 Original cell was already a primitive cell.

[...]

The dynamic configuration has the point symmetry C_1 .
 The point group associated with its full space group is C_1h.

Analysis of structural, dynamic, and magnetic symmetry:
 Subroutine PRICEL returns:
 Original cell was already a primitive cell.

 Routine SETGRP: Setting up the symmetry group for a
 simple cubic supercell.

 Subroutine GETGRP returns: Found  2 space group operations
 (whereof  1 operations were pure point group operations)
 out of a pool of 48 trial point group operations.

The overall configuration has the point symmetry C_1 .
 The point group associated with its full space group is C_1h.

 Subroutine INISYM returns: Found  2 space group operations
 (whereof  1 operations are pure point group operations),
 and found     1 'primitive' translations

                                     Primitive cell

  volume of cell :     908.0948

  direct lattice vectors                    reciprocal lattice vectors
     9.683753663  0.000000000  0.000000000     0.103265741  0.000000000  0.000000000
     0.000000000  9.683753663  0.000000000     0.000000000  0.103265741  0.000000000
     0.000000000  0.000000000  9.683753663     0.000000000  0.000000000  0.103265741

  length of vectors
     9.683753663  9.683753663  9.683753663     0.103265741  0.103265741  0.103265741

  position of ions in fractional coordinates (direct lattice)
     0.984004586  0.225274837  0.274590757
     0.977554760  0.752475441  0.747390153
     0.023966504  0.296425003  0.682892283
     0.023966504  0.816973311  0.203440591
     0.270574294  0.284217982  0.989033977
     0.224284729  0.805079302  0.015296554
     0.830980899  0.189939375  0.026430173
     0.812127295  0.842292501  0.964156085
     0.335408490  0.952211392  0.324794628
     0.185189701  0.033690962  0.817249381
     0.662023659  0.973787163  0.717117515
     0.704874792  0.013467999  0.295520160
     0.185189701  0.682616213  0.466174632
     0.335408490  0.175070966  0.547654202
     0.662023659  0.782748079  0.526078431
     0.704874792  0.204345434  0.486397595
     0.224284729  0.484569040  0.694786292
     0.270574294  0.510831616  0.215647612
     0.830980899  0.473435421  0.309926219
     0.812127295  0.535709509  0.657573093
     0.479099617  0.320887431  0.811176449
     0.479099617  0.688689145  0.178978163
     0.535861045  0.307111398  0.192754196
     0.679229943  0.579109883  0.920755711
     0.498788152  0.499216055  0.494497340
     0.498788152  0.005368254  0.000649539
     0.992451059  0.505516958  0.994348636
     0.006160492  0.987626747  0.512238847
     0.140881680  0.872326239  0.627539355
     0.140399318  0.104403761  0.395461833
     0.881142751  0.862990168  0.394445203
     0.881142751  0.105420391  0.636875426
     0.867078482  0.631441342  0.110134736
     0.867078482  0.389730858  0.868424251
     0.130479398  0.618112768  0.881752826
     0.096602998  0.374319831  0.125545762
     0.627634675  0.137875858  0.894976000
     0.622155016  0.874755162  0.116517400
     0.376615589  0.115577897  0.134405675
     0.391396514  0.892219170  0.861524768
     0.627634675  0.604889594  0.361989736
     0.622155016  0.383348194  0.625110432
     0.391396514  0.638340826  0.607646424
     0.376615589  0.365459919  0.384287697
     0.743875547  0.746811089  0.753054505
     0.757197197  0.244378507  0.255487086
     0.251754790  0.743325471  0.243052938
     0.251754790  0.256812655  0.756540123
     0.011526060  0.979446871  0.005338315
     0.011526060  0.494527279  0.520418723
     0.534686221  0.007127319  0.492738275
     0.471994115  0.479052859  0.020812735

  ion indices of the primitive-cell ions
   primitive index   ion index
                 1           1
[...]
     17     -42.3854      1.00000
     18     -42.3666      1.00000
     19     -42.3666      1.00000
     20     -42.3483      1.00000
     21     -42.3313      1.00000
     22     -42.3133      1.00000
     23     -42.3020      1.00000
     24     -42.1705      1.00000
     25     -13.2368      1.00000
     26     -13.0125      1.00000
     27     -12.9586      1.00000
     28     -12.9390      1.00000
     29     -12.7338      1.00000
     30     -12.6596      1.00000
     31     -12.4892      1.00000
     32     -12.4856      1.00000
     33     -10.3814      1.00000
     34     -10.3481      1.00000
     35     -10.3427      1.00000
     36     -10.2200      1.00000
     37     -10.1193      1.00000
     38     -10.0364      1.00000
     39     -10.0307      1.00000
     40      -9.9694      1.00000
     41      -9.9686      1.00000
     42      -9.9546      1.00000
     43      -9.8560      1.00000
     44      -9.8395      1.00000
     45      -8.4638      1.00000
     46      -8.4401      1.00000
     47      -8.4358      1.00000
     48      -8.2723      1.00000
     49      -6.1854      1.00000
     50      -5.8222      1.00000
     51      -5.6265      1.00000
     52      -5.5911      1.00000
     53      -3.2827      1.00000
     54      -3.2462      1.00000
     55      -3.2255      1.00000
     56      -2.9219      1.00000
     57      -2.7287      1.00000
     58      -2.7160      1.00000
     59      -2.6060      1.00000
     60      -2.5179      1.00000
[...]
    162       8.9643      0.00000
    163       9.0511      0.00000
    164       9.1187      0.00000
    165       9.1297      0.00000
    166       9.2425      0.00000
    167       9.3392      0.00000
    168       9.3559      0.00000
    169       9.4518      0.00000
    170       9.4597      0.00000
    171       9.4869      0.00000
    172       9.5942      0.00000
    173       9.6106      0.00000
    174       9.7344      0.00000
    175       9.7500      0.00000
    176       9.7959      0.00000

[...]

 soft charge-density along one line, spin component           2
         0         1         2         3         4         5         6         7         8         9
 total charge-density along one line

------------------------ aborting loop because EDIFF is reached ----------------------------------------

         DFTD3 V3.0 Rev 1
 Edisp (eV)  -13.46999

 E6    (eV) :    -8.3012
 E8    (eV) :    -5.1688
 % E8        : 38.37

  FORCE on cell =-STRESS in cart. coord.  units (eV):
  Direction    XX          YY          ZZ          XY          YZ          ZX
  Alpha Z   298.93079   298.93079   298.93079
  Ewald   -2868.46812 -2955.45126 -2955.45126    12.28522   -52.24449   -12.28522
  Hartree   767.76378   732.87128   732.87128    -3.06784   -35.42919     3.06783
  E(xc)    -947.46398  -947.74138  -947.74137     0.06819    -0.11545    -0.06819
  Local   -1600.53134 -1485.27001 -1485.27000    -6.52835    89.65100     6.52835
  n-local  1481.83718  1481.24847  1481.27652    -0.21206    -0.27380    -0.83475
  augment  -356.45553  -357.11539  -357.11568     0.06328     0.01086    -0.06572
  Kinetic  3235.70467  3248.20705  3248.19311    -3.09560    -0.79526     1.56920
  Fock        0.00000     0.00000     0.00000     0.00000     0.00000     0.00000
  vdW       -14.25465   -14.26647   -14.26647     0.01574     0.02171    -0.01574
  Total      -2.93720     1.42001     1.42001     0.81630     0.82552    -0.81630
  in kB      -5.18218     2.50536     2.50536     1.44023     1.45649    -1.44022

 VOLUME and BASIS-vectors are now :
  energy-cutoff  :      520.00
  volume of cell :      908.09
      direct lattice vectors                 reciprocal lattice vectors
     9.683753663  0.000000000  0.000000000     0.103265741  0.000000000  0.000000000
     0.000000000  9.683753663  0.000000000     0.000000000  0.103265741  0.000000000
     0.000000000  0.000000000  9.683753663     0.000000000  0.000000000  0.103265741

  length of vectors
     9.683753663  9.683753663  9.683753663     0.103265741  0.103265741  0.103265741

 FORCES acting on ions
    electron-ion (+dipol)            ewald-force                    non-local-force                 convergence-correction
   -.973E+01 0.103E+01 -.103E+01   0.875E+01 -.115E+01 0.115E+01   0.976E+00 0.121E+00 -.121E+00   0.958E-04 -.159E-04 0.159E-04
   -.111E+01 -.366E+01 0.366E+01   0.224E+00 0.389E+01 -.389E+01   0.885E+00 -.234E+00 0.234E+00   0.306E-04 -.525E-05 0.525E-05
   0.146E+01 0.501E+01 0.397E+01   -.797E+00 -.603E+01 -.326E+01   -.661E+00 0.102E+01 -.718E+00   0.671E-04 0.130E-03 -.139E-04
   0.146E+01 -.397E+01 -.501E+01   -.797E+00 0.326E+01 0.603E+01   -.661E+00 0.718E+00 -.102E+01   0.671E-04 0.139E-04 -.130E-03
   0.602E+01 0.394E+01 -.226E+01   -.699E+01 -.470E+01 0.124E+01   0.979E+00 0.761E+00 0.101E+01   0.112E-04 -.301E-04 0.264E-04
   -.450E+01 -.252E+01 0.443E+01   0.562E+01 0.158E+01 -.368E+01   -.111E+01 0.948E+00 -.753E+00   -.426E-04 0.843E-04 -.893E-04
   -.164E+02 0.910E+01 0.373E+01   0.145E+02 -.821E+01 -.303E+01   0.188E+01 -.894E+00 -.695E+00   -.103E-03 0.125E-03 0.423E-05
   -.648E+00 -.125E+02 0.126E+01   -.317E+00 0.116E+02 -.196E+01   0.961E+00 0.860E+00 0.702E+00   0.175E-03 -.151E-04 -.340E-04
   -.672E+01 0.352E+01 -.126E+02   0.529E+01 -.447E+01 0.111E+02   0.143E+01 0.947E+00 0.147E+01   -.662E-04 0.936E-04 -.732E-04
   0.741E+01 -.486E+01 -.524E+01   -.599E+01 0.558E+01 0.427E+01   -.142E+01 -.725E+00 0.974E+00   -.336E-05 -.733E-04 -.353E-04
   0.885E+01 -.495E+00 0.188E+01   -.795E+01 -.167E+00 -.662E+00   -.897E+00 0.658E+00 -.122E+01   0.101E-03 0.836E-04 -.407E-04
   -.231E+01 0.439E+01 0.434E+01   0.292E+01 -.378E+01 -.534E+01   -.610E+00 -.610E+00 0.101E+01   -.113E-03 0.536E-04 0.344E-04
   0.741E+01 0.524E+01 0.486E+01   -.599E+01 -.427E+01 -.558E+01   -.142E+01 -.974E+00 0.725E+00   -.336E-05 0.353E-04 0.733E-04
   -.672E+01 0.126E+02 -.352E+01   0.529E+01 -.111E+02 0.447E+01   0.143E+01 -.147E+01 -.947E+00   -.662E-04 0.732E-04 -.936E-04
   0.885E+01 -.188E+01 0.495E+00   -.795E+01 0.662E+00 0.167E+00   -.897E+00 0.122E+01 -.658E+00   0.101E-03 0.407E-04 -.836E-04
   -.231E+01 -.434E+01 -.439E+01   0.292E+01 0.534E+01 0.378E+01   -.610E+00 -.101E+01 0.610E+00   -.113E-03 -.344E-04 -.536E-04
   -.450E+01 -.443E+01 0.252E+01   0.562E+01 0.368E+01 -.158E+01   -.111E+01 0.753E+00 -.948E+00   -.426E-04 0.893E-04 -.843E-04
   0.602E+01 0.226E+01 -.394E+01   -.699E+01 -.124E+01 0.470E+01   0.979E+00 -.101E+01 -.761E+00   0.112E-04 -.264E-04 0.301E-04
   -.164E+02 -.373E+01 -.910E+01   0.145E+02 0.303E+01 0.821E+01   0.188E+01 0.695E+00 0.894E+00   -.103E-03 -.422E-05 -.125E-03
   -.648E+00 -.126E+01 0.125E+02   -.317E+00 0.196E+01 -.116E+02   0.961E+00 -.702E+00 -.860E+00   0.175E-03 0.340E-04 0.151E-04
   -.316E+01 -.865E+01 -.500E-01   0.267E+01 0.758E+01 -.116E+01   0.482E+00 0.107E+01 0.122E+01   -.162E-04 -.201E-05 0.364E-04
   -.316E+01 0.500E-01 0.865E+01   0.267E+01 0.116E+01 -.758E+01   0.482E+00 -.122E+01 -.107E+01   -.162E-04 -.364E-04 0.201E-05
   -.706E+01 -.257E+01 0.257E+01   0.779E+01 0.175E+01 -.175E+01   -.739E+00 0.817E+00 -.817E+00   -.421E-04 -.601E-04 0.601E-04
   0.262E+02 0.142E+01 -.142E+01   -.252E+02 -.263E+00 0.263E+00   -.915E+00 -.115E+01 0.115E+01   0.549E-04 -.860E-04 0.860E-04
   0.526E+01 -.306E+01 -.434E+01   -.614E+01 0.388E+01 0.480E+01   0.883E+00 -.814E+00 -.460E+00   -.539E-04 -.199E-03 -.989E-04
   0.526E+01 0.434E+01 0.306E+01   -.614E+01 -.480E+01 -.388E+01   0.883E+00 0.460E+00 0.814E+00   -.539E-04 0.989E-04 0.199E-03
   -.505E+01 0.793E+01 -.793E+01   0.484E+01 -.747E+01 0.747E+01   0.205E+00 -.465E+00 0.465E+00   0.520E-04 0.112E-03 -.112E-03
   0.864E+00 -.479E+01 0.479E+01   -.642E+00 0.453E+01 -.453E+01   -.212E+00 0.266E+00 -.266E+00   -.757E-06 -.141E-03 0.141E-03
   -.680E+02 0.275E+02 -.275E+02   0.720E+02 -.296E+02 0.296E+02   -.397E+01 0.211E+01 -.211E+01   -.488E-04 -.190E-03 0.190E-03
   -.396E+02 -.418E+02 0.418E+02   0.426E+02 0.448E+02 -.448E+02   -.295E+01 -.300E+01 0.300E+01   0.409E-03 0.507E-04 -.507E-04
   0.288E+02 0.543E+02 0.341E+02   -.315E+02 -.584E+02 -.368E+02   0.272E+01 0.412E+01 0.265E+01   0.489E-04 0.923E-05 0.273E-03
   0.288E+02 -.341E+02 -.543E+02   -.315E+02 0.368E+02 0.584E+02   0.272E+01 -.265E+01 -.412E+01   0.489E-04 -.273E-03 -.924E-05
   0.414E+02 -.289E+02 -.560E+02   -.448E+02 0.313E+02 0.591E+02   0.342E+01 -.240E+01 -.308E+01   -.509E-05 0.105E-03 -.114E-03
   0.414E+02 0.560E+02 0.289E+02   -.448E+02 -.591E+02 -.313E+02   0.342E+01 0.308E+01 0.240E+01   -.509E-05 0.114E-03 -.105E-03
   -.700E+02 -.287E+02 0.287E+02   0.741E+02 0.315E+02 -.315E+02   -.414E+01 -.280E+01 0.280E+01   -.158E-03 0.140E-03 -.140E-03
   -.182E+02 0.483E+02 -.483E+02   0.211E+02 -.517E+02 0.517E+02   -.287E+01 0.341E+01 -.341E+01   0.112E-03 0.988E-04 -.988E-04
   -.424E+02 -.431E+02 0.349E+02   0.455E+02 0.463E+02 -.374E+02   -.311E+01 -.328E+01 0.253E+01   0.104E-03 0.162E-03 0.277E-03
   -.295E+02 0.439E+02 -.322E+02   0.325E+02 -.472E+02 0.349E+02   -.292E+01 0.331E+01 -.270E+01   -.427E-04 0.124E-03 0.239E-04
   0.563E+02 -.214E+02 -.451E+02   -.594E+02 0.235E+02 0.486E+02   0.314E+01 -.210E+01 -.353E+01   0.117E-04 0.146E-03 0.260E-03
   0.143E+02 0.602E+02 0.724E+02   -.154E+02 -.634E+02 -.769E+02   0.108E+01 0.321E+01 0.451E+01   -.427E-03 0.626E-04 0.260E-03
   -.424E+02 -.349E+02 0.431E+02   0.455E+02 0.374E+02 -.463E+02   -.311E+01 -.253E+01 0.328E+01   0.104E-03 -.277E-03 -.162E-03
   -.295E+02 0.322E+02 -.439E+02   0.325E+02 -.349E+02 0.472E+02   -.292E+01 0.270E+01 -.331E+01   -.427E-04 -.239E-04 -.124E-03
   0.143E+02 -.724E+02 -.602E+02   -.154E+02 0.769E+02 0.634E+02   0.108E+01 -.451E+01 -.321E+01   -.427E-03 -.260E-03 -.626E-04
   0.563E+02 0.451E+02 0.214E+02   -.594E+02 -.486E+02 -.235E+02   0.314E+01 0.353E+01 0.210E+01   0.117E-04 -.260E-03 -.146E-03
   0.355E+02 -.350E+01 0.350E+01   -.363E+02 0.340E+01 -.340E+01   0.867E+00 0.952E-01 -.952E-01   0.629E-03 0.447E-04 -.447E-04
   -.284E+01 -.104E+02 0.104E+02   0.236E+01 0.108E+02 -.108E+02   0.495E+00 -.383E+00 0.383E+00   -.550E-03 0.203E-03 -.203E-03
   0.202E+01 -.462E+01 -.133E+02   -.203E+01 0.481E+01 0.136E+02   0.153E-01 -.192E+00 -.309E+00   -.139E-03 0.404E-04 -.352E-04
   0.202E+01 0.133E+02 0.462E+01   -.203E+01 -.136E+02 -.481E+01   0.153E-01 0.309E+00 0.192E+00   -.139E-03 0.352E-04 -.404E-04
   -.565E+01 -.462E+02 -.487E+01   0.588E+01 0.472E+02 0.501E+01   -.233E+00 -.967E+00 -.132E+00   0.178E-03 -.711E-03 -.126E-03
   -.565E+01 0.487E+01 0.462E+02   0.588E+01 -.501E+01 -.472E+02   -.233E+00 0.132E+00 0.967E+00   0.178E-03 0.126E-03 0.711E-03
   0.411E+02 0.147E+02 -.147E+02   -.417E+02 -.148E+02 0.148E+02   0.611E+00 0.156E+00 -.156E+00   0.427E-03 0.379E-03 -.379E-03
   -.341E+01 -.295E+02 0.295E+02   0.302E+01 0.299E+02 -.299E+02   0.388E+00 -.413E+00 0.413E+00   0.212E-03 -.134E-03 0.134E-03
   -.654E+00 -.976E+00 0.976E+00   -.533E-13 0.533E-13 0.568E-13   0.674E+00 0.980E+00 -.980E+00   0.594E-03 0.490E-04 -.490E-04

 POSITION                                       TOTAL-FORCE (eV/Angst)
      9.52885      2.18146      2.65911        -0.000182     -0.000167      0.000167
      9.46639      7.28678      7.23755        -0.000144     -0.000031      0.000031
      0.23207      2.87052      6.61288        -0.000048      0.000009     -0.000382
      0.23207      7.91145      1.97005        -0.000048      0.000382     -0.000009
      2.62023      2.75237      9.57758         0.000139      0.000315     -0.000035
      2.17195      7.79627      0.14809         0.000165      0.000369     -0.000109
      8.04721      1.83928      0.25593         0.000830     -0.000162     -0.000034
      7.86443      8.15663      9.33663        -0.000086      0.000389     -0.000124
      3.24808      9.22096      3.14531         0.000248     -0.000146      0.000302
      1.79327      0.32627      7.91408        -0.000206      0.000168      0.000119
      6.41063      9.42991      6.94440        -0.000990     -0.000038      0.000103
      6.82586      0.13038      2.86179         0.000149     -0.000151      0.000125
      1.79327      6.61025      4.51431        -0.000206     -0.000119     -0.000168
      3.24808      1.69526      5.30337         0.000248     -0.000302      0.000146
      6.41063      7.57993      5.09442        -0.000990     -0.000103      0.000038
      6.82586      1.97879      4.71019         0.000149     -0.000125      0.000151
      2.17195      4.69249      6.72805         0.000165      0.000109     -0.000369
      2.62023      4.94675      2.08821         0.000139      0.000035     -0.000315
      8.04721      4.58464      3.00129         0.000830      0.000034      0.000162
      7.86443      5.18770      6.36770        -0.000086      0.000124     -0.000389
      4.63949      3.10745      7.85530         0.000003      0.000224      0.000224
      4.63949      6.66903      1.73313         0.000003     -0.000224     -0.000224
      5.18911      2.97400      1.86658        -0.000163      0.000013     -0.000013
      6.57751      5.60793      8.91640         0.000091     -0.000072      0.000072
      4.83016      4.83434      4.78861         0.000177     -0.000005     -0.000043
      4.83016      0.05196      0.00624         0.000177      0.000043      0.000005
      9.61066      4.89530      9.62903         0.000058      0.000063     -0.000063
      0.05962      9.56389      4.96044        -0.000261     -0.000267      0.000267
      1.36442      8.44728      6.07705        -0.000010      0.000001     -0.000001
      1.35966      1.01108      3.82949        -0.000517     -0.000363      0.000363
      8.53266      8.35677      3.81970         0.000348      0.000125      0.000670
      8.53266      1.02087      6.16756         0.000348     -0.000670     -0.000125
      8.39648      6.11487      1.06660         0.000396     -0.000236     -0.000423
      8.39648      3.77398      8.40946         0.000396      0.000423      0.000236
      1.26370      5.98572      8.53861        -0.000217     -0.000282      0.000282
      0.93553      3.62469      1.21589        -0.000358      0.000358     -0.000358
      6.07801      1.33532      8.66671        -0.000305     -0.000328      0.000454
      6.02488      8.47078      1.12845        -0.000398      0.000357     -0.000307
      3.64688      1.11925      1.30162        -0.000038     -0.000436     -0.000498
      3.79018      8.63994      8.34258         0.000642      0.000410      0.000047
      6.07801      5.85762      3.50526        -0.000305     -0.000454      0.000328
      6.02488      3.71213      6.05355        -0.000398      0.000307     -0.000357
      3.79018      6.18175      5.88439         0.000642     -0.000047     -0.000410
      3.64688      3.53895      3.72133        -0.000038      0.000498      0.000436
      7.20343      7.23193      7.29240        -0.000177     -0.000002      0.000002
      7.33250      2.36650      2.47407         0.000063     -0.000097      0.000097
      2.43794      7.19820      2.35366         0.000025      0.000009     -0.000106
      2.43794      2.48692      7.32613         0.000025      0.000106     -0.000009
      0.11165      9.48493      0.05171        -0.000045      0.000060      0.000064
      0.11165      4.78886      5.03940        -0.000045     -0.000064     -0.000060
      5.17761      0.06900      4.77157        -0.000106      0.000017     -0.000017
      4.57064      4.63908      0.20149        -0.000088     -0.000060      0.000060
    total drift:                                0.020181      0.004792     -0.004811

  FREE ENERGIE OF THE ION-ELECTRON SYSTEM (eV)
  free  energy   TOTEN  =      -271.75877115 eV

  energy  without entropy=     -271.75877115  energy(sigma->0) =     -271.75877115

 d Force = 0.1177108E-05[ 0.641E-06, 0.171E-05]  d Energy = 0.1710371E-05-0.533E-06
 d Force = 0.1073457E-01[ 0.107E-01, 0.107E-01]  d Ewald  = 0.1073457E-01-0.491E-10

 stress matrix after NEB project (eV)
     -2.93720      0.81630     -0.81630
      0.81630      1.42001      0.82552
     -0.81630      0.82552      1.42001
  FORCES: max atom, RMS     0.000996    0.000495
  FORCE total and by dimension    0.003571    0.000990
  Stress total and by dimension    4.085135    2.937199
 Conjugate gradient step on ions:
 trial-energy change:   -0.000002  1 .order   -0.000001   -0.000002   -0.000001
  (g-gl).g = 0.130E-05      g.g   = 0.122E-05  gl.gl    = 0.452E-05
 g(Force)  = 0.122E-05   g(Stress)= 0.000E+00 ortho     =-0.788E-07
 gamma     =   0.28714
 trial     =   1.43208
 opt step  =   2.28715  (harmonic =   2.28715) maximal distance =0.00010450
 next E    =  -271.758771   (d E  =  -0.00000)

 reached required accuracy - stopping structural energy minimisation