 vasp.6.4.1 05Apr23 (build Jun 07 2023 15:38:11) complex

 executed on             LinuxIFC date 2023.10.01  02:39:54

 INCAR:
   GGA = PE
   PREC = Accu
   EDIFF = 1.e-5
   EDIFFG = -1.e-2
   ENCUT = 520.
   NELM = 100
   NELMDL = -10
   LASPH = .TRUE.
   LREAL = Auto
   LMAXMIX = 4
   ISPIN = 2
   LDIAG = .TRUE.
   LPLANE = .TRUE.
   IVDW = 12
   SIGMA = 0.03
   ISMEAR = 0
   NSW = 1000    number of steps for IOM
   IBRION = 1    ionic relax: 0-MD 1-quasi-New 2-CG
   ISIF = 2    ionic relaxation + stress tensor calcn.
   LCHARG = .FALSE.
   LWAVE = .FALSE.
   ALGO = V
   KPAR = 1
   NPAR = 4

 POTCAR:    PAW_PBE Li_sv_GW 25Mar2010
 POTCAR:    PAW_PBE P_GW 19Mar2012
 POTCAR:    PAW_PBE S_GW 19Mar2012
 POTCAR:    PAW_PBE Cl_GW 19Mar2012
|           W    W    AA    RRRRR   N    N  II  N    N   GGGG   !!!           |
|           W    W   A  A   R    R  NN   N  II  NN   N  G    G  !!!           |
|           W    W  A    A  R    R  N N  N  II  N N  N  G       !!!           |
|           W WW W  AAAAAA  RRRRR   N  N N  II  N  N N  G  GGG   !            |
|           WW  WW  A    A  R   R   N   NN  II  N   NN  G    G                |
|           W    W  A    A  R    R  N    N  II  N    N   GGGG   !!!           |
|     You use a magnetic or noncollinear calculation, but did not specify     |
|     the initial magnetic moment with the MAGMOM tag. Note that a            |
|     default of 1 will be used for all atoms. This ferromagnetic setup       |
|     may break the symmetry of the crystal, in particular it may rule        |
|     out finding an antiferromagnetic solution. Thence, we recommend         |
|     setting the initial magnetic moment manually or verifying carefully     |
|     that this magnetic setup is desired.                                    |

   TITEL  = PAW_PBE Li_sv_GW 25Mar2010
   POMASS =    7.010; ZVAL   =    3.000    mass and valenz
   ENMAX  =  433.699; ENMIN  =  325.274 eV

   TITEL  = PAW_PBE P_GW 19Mar2012
   POMASS =   30.974; ZVAL   =    5.000    mass and valenz
   ENMAX  =  255.040; ENMIN  =  191.280 eV

[...]

   TITEL  = PAW_PBE Cl_GW 19Mar2012
   POMASS =   35.453; ZVAL   =    7.000    mass and valenz
   ENMAX  =  262.472; ENMIN  =  196.854 eV

 Optimization of the real space projectors (new method)

 maximal supplied QI-value         = 25.13
 optimisation between [QCUT,QGAM] = [ 11.56, 23.12] = [ 37.43,149.72] Ry
 Optimized for a Real-space Cutoff    1.28 Angstroem

   l    n(q)    QCUT    max X(q) W(low)/X(q) W(high)/X(q)  e(spline)
   0      9    11.561    87.733    0.11E-03    0.32E-04    0.56E-06
   0      9    11.561    82.800    0.11E-03    0.35E-04    0.56E-06
   0      9    11.561     2.509    0.22E-03    0.42E-04    0.79E-06
   1      8    11.561    12.580    0.94E-04    0.26E-03    0.21E-06
   1      8    11.561     1.319    0.33E-04    0.15E-03    0.19E-06
   2      8    11.561     1.993    0.36E-04    0.89E-04    0.26E-06
 Optimization of the real space projectors (new method)

[...]

   l    n(q)    QCUT    max X(q) W(low)/X(q) W(high)/X(q)  e(spline)
   0     10    11.508     7.541    0.34E-04    0.13E-04    0.69E-07
   0     10    11.508     1.809    0.49E-04    0.27E-04    0.14E-06
   1     10    11.508     4.107    0.27E-05    0.41E-05    0.14E-06
   1     10    11.508     2.196    0.26E-05    0.25E-05    0.22E-06
   2      9    11.508     4.265    0.18E-03    0.11E-03    0.81E-06
   2      9    11.508     1.925    0.97E-04    0.76E-04    0.47E-06
 Optimization of the real space projectors (new method)

 maximal supplied QI-value         = 19.84
 optimisation between [QCUT,QGAM] = [ 11.51, 23.22] = [ 37.09,150.92] Ry
 Optimized for a Real-space Cutoff    1.21 Angstroem

   l    n(q)    QCUT    max X(q) W(low)/X(q) W(high)/X(q)  e(spline)
   0      8    11.508     6.761    0.57E-04    0.57E-04    0.35E-07
   0      8    11.508     1.642    0.14E-03    0.14E-03    0.91E-07
   1      8    11.508     3.519    0.20E-04    0.72E-04    0.47E-07
   1      8    11.508     2.150    0.27E-04    0.11E-03    0.89E-07
   2      7    11.508     2.976    0.19E-03    0.33E-03    0.16E-06
   2      7    11.508     1.494    0.14E-03    0.29E-03    0.14E-06
  PAW_PBE Li_sv_GW 25Mar2010            :
  PAW_PBE P_GW 19Mar2012                :
  PAW_PBE S_GW 19Mar2012                :
  PAW_PBE Cl_GW 19Mar2012               :

 POSCAR: Li24 P4 S20 Cl4
  positions in direct lattice
 exchange correlation table for  LEXCH =        8
   RHO(1)=    0.500       N(1)  =     2000
   RHO(2)=  100.500       N(2)  =     4000

 VTST: version 4.1, (05/19/21)

 CHAIN: initializing optimizer

 OPT: Using VASP QUASI-newton optimizer
 CHAIN: Read ICHAIN            0

 POSCAR: Li24 P4 S20 Cl4
  positions in direct lattice

 ion  position               nearest neighbor table
   1  0.977  0.250  0.250-
   2  0.977  0.750  0.750-
   3  0.023  0.250  0.750-
   4  0.023  0.750  0.250-
   5  0.250  0.250  0.977-
   6  0.250  0.750  0.023-
   7  0.750  0.250  0.023-
   8  0.750  0.750  0.977-
   9  0.250  0.977  0.250-
  10  0.250  0.023  0.750-
  11  0.750  0.977  0.750-
  12  0.750  0.023  0.250-
  13  0.250  0.750  0.477-
  14  0.250  0.250  0.523-
  15  0.750  0.750  0.523-
  16  0.750  0.250  0.477-
  17  0.250  0.477  0.750-
  18  0.250  0.523  0.250-
  19  0.750  0.477  0.250-
  20  0.750  0.523  0.750-
  21  0.477  0.250  0.750-
  22  0.477  0.750  0.250-
  23  0.523  0.250  0.250-
  24  0.523  0.750  0.750-
  25  0.500  0.500  0.500-  43 2.05  42 2.05  41 2.05  44 2.05
  26  0.500  1.000  1.000-  39 2.05  38 2.05  37 2.05  40 2.05
  27  0.000  0.500  0.000-  36 2.05  35 2.05  33 2.05  34 2.05
  28  0.000  0.000  0.500-  30 2.05  29 2.05  32 2.05  31 2.05
  29  0.118  0.882  0.618-  28 2.05
  30  0.118  0.118  0.382-  28 2.05
  31  0.882  0.882  0.382-  28 2.05
  32  0.882  0.118  0.618-  28 2.05
  33  0.882  0.618  0.118-  27 2.05
  34  0.882  0.382  0.882-  27 2.05
  35  0.118  0.618  0.882-  27 2.05
  36  0.118  0.382  0.118-  27 2.05
  37  0.618  0.118  0.882-  26 2.05
  38  0.618  0.882  0.118-  26 2.05
  39  0.381  0.118  0.118-  26 2.05
  40  0.382  0.882  0.882-  26 2.05
  41  0.618  0.618  0.382-  25 2.05
  42  0.618  0.382  0.618-  25 2.05
  43  0.382  0.618  0.618-  25 2.05
  44  0.382  0.382  0.382-  25 2.05
  45  0.750  0.750  0.750-
  46  0.750  0.250  0.250-
  47  0.250  0.750  0.250-
  48  0.250  0.250  0.750-
  49  0.000  0.000  0.000-
  50  0.000  0.500  0.500-
  51  0.500  1.000  0.500-
  52  0.500  0.500  1.000-

  LATTYP: Found a simple cubic cell.
 ALAT       =    10.0287435592

  Lattice vectors:

 A1 = (  10.0287435592,   0.0000000000,   0.0000000000)
 A2 = (   0.0000000000,  10.0287435592,   0.0000000000)
 A3 = (   0.0000000000,   0.0000000000,  10.0287435592)

Analysis of symmetry for initial positions (statically):
 Subroutine PRICEL returns:
 Original cell was already a primitive cell.

 Routine SETGRP: Setting up the symmetry group for a
 simple cubic supercell.

 Subroutine GETGRP returns: Found  2 space group operations
 (whereof  2 operations were pure point group operations)
 out of a pool of 48 trial point group operations.

The static configuration has the point symmetry C_1h.

Analysis of symmetry for dynamics (positions and initial velocities):
 Subroutine PRICEL returns:
 Original cell was already a primitive cell.

[...]

The dynamic configuration has the point symmetry C_1h.

Analysis of structural, dynamic, and magnetic symmetry:
 Subroutine PRICEL returns:
 Original cell was already a primitive cell.

 Routine SETGRP: Setting up the symmetry group for a
 simple cubic supercell.

 Subroutine GETGRP returns: Found  2 space group operations
 (whereof  2 operations were pure point group operations)
 out of a pool of 48 trial point group operations.

The overall configuration has the point symmetry C_1h.

 Subroutine INISYM returns: Found  2 space group operations
 (whereof  2 operations are pure point group operations),
 and found     1 'primitive' translations

                                     Primitive cell

  volume of cell :    1008.6479

  direct lattice vectors                    reciprocal lattice vectors
    10.028743559  0.000000000  0.000000000     0.099713388  0.000000000  0.000000000
     0.000000000 10.028743559  0.000000000     0.000000000  0.099713388  0.000000000
     0.000000000  0.000000000 10.028743559     0.000000000  0.000000000  0.099713388

  length of vectors
    10.028743559 10.028743559 10.028743559     0.099713388  0.099713388  0.099713388

  position of ions in fractional coordinates (direct lattice)
     0.977309114  0.250029348  0.250029348
     0.976815334  0.750037494  0.750037494
     0.023033326  0.250083035  0.749992115
     0.023033326  0.749992115  0.250083035
     0.249961405  0.250170644  0.976549919
     0.249976767  0.750051340  0.023301863
     0.750225042  0.249873759  0.023292823
     0.749964197  0.750039150  0.976805869
     0.249961405  0.976549919  0.250170644
     0.249976767  0.023301863  0.750051340
     0.749964197  0.976805869  0.750039150
     0.750225042  0.023292823  0.249873759
     0.249942183  0.750082115  0.476784222
     0.250093588  0.250244765  0.523299965
     0.749962814  0.750077231  0.523326448
     0.749860886  0.249959864  0.476654712
     0.249942183  0.476784222  0.750082115
     0.250093588  0.523299965  0.250244765
     0.749860886  0.476654712  0.249959864
     0.749962814  0.523326448  0.750077231
     0.476925533  0.250086202  0.750041475
     0.476925533  0.750041475  0.250086202
     0.523072565  0.249532080  0.249532080
     0.523081196  0.749828460  0.749828460
     0.500018333  0.499952087  0.499952087
     0.499870376  0.999897652  0.999897652
     0.000010644  0.500108101  0.000036191
     0.000010644  0.000036191  0.500108101
     0.118055805  0.881954820  0.618192538
     0.118376948  0.117955237  0.382191264
     0.881856400  0.882025694  0.382031504
     0.881795447  0.118123510  0.618022814
     0.881795447  0.618022814  0.118123510
     0.881856400  0.382031504  0.882025694
     0.118055805  0.618192538  0.881954820
     0.118376948  0.382191264  0.117955237
     0.618058569  0.118066607  0.882045898
     0.618058569  0.882045898  0.118066607
     0.381375870  0.117746593  0.117746593
     0.381903692  0.881744884  0.881744884
     0.618188860  0.618046853  0.382001854
     0.618188860  0.382001854  0.618046853
     0.381744704  0.617912891  0.617912891
     0.382108288  0.381780885  0.381780885
     0.749952827  0.750058358  0.750058358
     0.750180947  0.249968355  0.249968355
     0.249978460  0.749941033  0.250048312
     0.249978460  0.250048312  0.749941033
     0.000007169  0.000055031  0.000055031
     0.000191693  0.500043889  0.500043889
     0.499917072  0.999939058  0.499963189
     0.499917072  0.499963189  0.999939058

  ion indices of the primitive-cell ions
   primitive index   ion index
                 1           1
                 2           2
                 3           3
                 4           4
                 5           5
                 6           6
                 7           7
                 8           8
                 9           9
                10          10
                11          11
[...]
     13     -43.3053      1.00000
     14     -43.3051      1.00000
     15     -43.3050      1.00000
     16     -43.3047      1.00000
     17     -43.3046      1.00000
     18     -43.3044      1.00000
     19     -43.3036      1.00000
     20     -43.3033      1.00000
     21     -43.3031      1.00000
     22     -43.3031      1.00000
     23     -43.3022      1.00000
     24     -43.3018      1.00000
     25     -14.1279      1.00000
     26     -14.1131      1.00000
     27     -14.1130      1.00000
     28     -14.1130      1.00000
     29     -11.2714      1.00000
     30     -11.2706      1.00000
     31     -11.2702      1.00000
     32     -11.2086      1.00000
     33     -11.1436      1.00000
     34     -11.1434      1.00000
     35     -11.1430      1.00000
     36     -11.1190      1.00000
     37     -11.1186      1.00000
     38     -11.1181      1.00000
     39     -11.1174      1.00000
     40     -11.1164      1.00000
     41     -11.0874      1.00000
     42     -11.0814      1.00000
     43     -11.0810      1.00000
     44     -11.0807      1.00000
     45      -9.6607      1.00000
     46      -9.6603      1.00000
     47      -9.6598      1.00000
     48      -9.6566      1.00000
     49      -7.1192      1.00000
     50      -6.8299      1.00000
     51      -6.8297      1.00000
     52      -6.8290      1.00000
     53      -4.1743      1.00000
     54      -4.1737      1.00000
     55      -4.1735      1.00000
     56      -3.8925      1.00000
     57      -3.7319      1.00000
     58      -3.7316      1.00000
     59      -3.6318      1.00000
     60      -3.6317      1.00000
[...]
    162       8.2988      0.00000
    163       8.3597      0.00000
    164       8.4447      0.00000
    165       8.4550      0.00000
    166       8.5295      0.00000
    167       8.5394      0.00000
    168       8.6534      0.00000
    169       8.7118      0.00000
    170       8.8013      0.00000
    171       8.9001      0.00000
    172       8.9405      0.00000
    173       9.0405      0.00000
    174       9.3493      0.00000
    175       9.5592      0.00000
    176       9.7355      0.00000

[...]

 soft charge-density along one line, spin component           2
         0         1         2         3         4         5         6         7         8         9
 total charge-density along one line

------------------------ aborting loop because EDIFF is reached ----------------------------------------

         DFTD3 V3.0 Rev 1
 Edisp (eV)  -12.07608

 E6    (eV) :    -7.4364
 E8    (eV) :    -4.6397
 % E8        : 38.42

  FORCE on cell =-STRESS in cart. coord.  units (eV):
  Direction    XX          YY          ZZ          XY          YZ          ZX
  Alpha Z   269.13010   269.13010   269.13010
  Ewald   -2758.49562 -2757.31423 -2757.31423    -0.00355    -0.12286    -0.00355
  Hartree   844.49811   845.18611   845.18611    -0.02715    -0.08980    -0.02715
  E(xc)    -946.81443  -946.81504  -946.81504    -0.00018     0.00006    -0.00018
  Local   -1761.03711 -1763.05474 -1763.05474     0.03452     0.22600     0.03452
  n-local  1480.93933  1481.02795  1481.02758    -0.28486    -0.00496     0.29752
  augment  -356.01782  -356.04554  -356.04554     0.00017     0.00194     0.00014
  Kinetic  3239.95370  3240.25946  3240.25871    -0.53048    -0.02296     0.51050
  Fock        0.00000     0.00000     0.00000     0.00000     0.00000     0.00000
  vdW       -12.82943   -12.82913   -12.82913     0.00005     0.00004     0.00005
  Total      -0.67317    -0.45563    -0.45563     0.00018    -0.01254     0.00018
  in kB      -1.06929    -0.72374    -0.72374     0.00029    -0.01992     0.00029

 VOLUME and BASIS-vectors are now :
  energy-cutoff  :      520.00
  volume of cell :     1008.65
      direct lattice vectors                 reciprocal lattice vectors
    10.028743559  0.000000000  0.000000000     0.099713388  0.000000000  0.000000000
     0.000000000 10.028743559  0.000000000     0.000000000  0.099713388  0.000000000
     0.000000000  0.000000000 10.028743559     0.000000000  0.000000000  0.099713388

  length of vectors
    10.028743559 10.028743559 10.028743559     0.099713388  0.099713388  0.099713388

 FORCES acting on ions
    electron-ion (+dipol)            ewald-force                    non-local-force                 convergence-correction
   -.672E+01 -.301E-01 -.301E-01   0.602E+01 0.296E-01 0.296E-01   0.679E+00 0.620E-03 0.620E-03   0.557E-02 -.405E-05 -.405E-05
   -.672E+01 0.714E-02 0.714E-02   0.602E+01 -.707E-02 -.707E-02   0.683E+00 -.452E-03 -.452E-03   0.233E-02 0.177E-03 0.177E-03
   0.682E+01 0.215E-02 0.106E-01   -.613E+01 -.233E-02 -.135E-01   -.685E+00 0.288E-03 0.124E-02   -.237E-02 -.459E-05 0.770E-03
   0.682E+01 0.106E-01 0.215E-02   -.613E+01 -.135E-01 -.233E-02   -.685E+00 0.124E-02 0.288E-03   -.237E-02 0.770E-03 -.459E-05
   -.317E-01 -.188E-01 -.690E+01   0.313E-01 0.162E-01 0.619E+01   0.188E-02 0.306E-02 0.700E+00   -.685E-03 -.372E-03 -.155E-02
   -.689E-02 -.220E-01 0.680E+01   0.631E-02 0.178E-01 -.610E+01   0.812E-03 0.385E-02 -.692E+00   -.511E-05 0.269E-03 -.448E-03
   -.112E-01 0.621E-01 0.686E+01   0.110E-01 -.586E-01 -.616E+01   0.104E-02 -.680E-02 -.702E+00   -.131E-03 0.149E-02 0.199E-03
   0.216E-02 0.844E-02 -.687E+01   -.317E-02 -.862E-02 0.617E+01   0.919E-03 0.154E-03 0.695E+00   0.470E-04 -.542E-04 -.368E-03
   -.317E-01 -.690E+01 -.188E-01   0.313E-01 0.619E+01 0.162E-01   0.188E-02 0.700E+00 0.306E-02   -.685E-03 -.155E-02 -.372E-03
   -.689E-02 0.680E+01 -.220E-01   0.631E-02 -.610E+01 0.178E-01   0.812E-03 -.692E+00 0.385E-02   -.511E-05 -.448E-03 0.269E-03
   0.216E-02 -.687E+01 0.843E-02   -.317E-02 0.617E+01 -.862E-02   0.919E-03 0.695E+00 0.154E-03   0.470E-04 -.368E-03 -.542E-04
   -.112E-01 0.686E+01 0.621E-01   0.110E-01 -.616E+01 -.586E-01   0.104E-02 -.702E+00 -.680E-02   -.131E-03 0.199E-03 0.149E-02
   -.200E-01 -.327E-01 -.685E+01   0.198E-01 0.277E-01 0.615E+01   0.115E-05 0.499E-02 0.696E+00   0.422E-04 0.414E-04 -.772E-04
   0.452E-01 -.372E-01 0.689E+01   -.447E-01 0.309E-01 -.618E+01   -.280E-02 0.646E-02 -.699E+00   0.112E-02 -.250E-03 0.891E-03
   0.343E-02 0.106E-01 0.687E+01   -.436E-02 -.111E-01 -.617E+01   0.184E-03 0.102E-02 -.696E+00   0.449E-03 -.159E-03 0.454E-04
   0.388E-01 0.244E-01 -.681E+01   -.349E-01 -.241E-01 0.611E+01   -.451E-02 -.231E-02 0.697E+00   0.258E-03 0.776E-03 -.274E-03
   -.200E-01 -.685E+01 -.327E-01   0.198E-01 0.615E+01 0.277E-01   0.115E-05 0.696E+00 0.499E-02   0.422E-04 -.772E-04 0.414E-04
   0.452E-01 0.689E+01 -.372E-01   -.447E-01 -.618E+01 0.309E-01   -.280E-02 -.699E+00 0.646E-02   0.112E-02 0.891E-03 -.250E-03
   0.388E-01 -.681E+01 0.244E-01   -.349E-01 0.611E+01 -.241E-01   -.451E-02 0.697E+00 -.231E-02   0.258E-03 -.274E-03 0.776E-03
   0.343E-02 0.687E+01 0.106E-01   -.436E-02 -.617E+01 -.111E-01   0.184E-03 -.696E+00 0.102E-02   0.449E-03 0.454E-04 -.159E-03
   -.683E+01 0.926E-02 0.608E-02   0.613E+01 -.890E-02 -.566E-02   0.685E+00 0.790E-03 0.349E-03   0.214E-02 -.535E-03 -.434E-03
   -.683E+01 0.608E-02 0.926E-02   0.613E+01 -.566E-02 -.890E-02   0.685E+00 0.349E-03 0.790E-03   0.214E-02 -.434E-03 -.535E-03
   0.672E+01 -.353E-01 -.353E-01   -.602E+01 0.409E-01 0.409E-01   -.680E+00 -.217E-02 -.217E-02   -.398E-02 -.134E-02 -.134E-02
   0.675E+01 0.117E-01 0.117E-01   -.605E+01 -.681E-02 -.681E-02   -.686E+00 -.542E-02 -.542E-02   -.203E-02 0.507E-03 0.507E-03
   -.378E-01 0.407E-01 0.407E-01   0.401E-01 -.434E-01 -.434E-01   -.524E-03 0.434E-02 0.434E-02   0.405E-03 0.419E-03 0.419E-03
   -.706E-01 0.508E-02 0.508E-02   0.666E-01 -.650E-02 -.650E-02   0.709E-02 0.542E-02 0.542E-02   -.627E-03 -.717E-04 -.717E-04
   0.868E-01 0.156E-01 -.789E-01   -.843E-01 -.133E-01 0.792E-01   -.254E-02 -.191E-02 0.198E-02   0.815E-03 0.630E-03 -.198E-03
   0.868E-01 -.789E-01 0.156E-01   -.843E-01 0.792E-01 -.133E-01   -.254E-02 0.198E-02 -.191E-02   0.815E-03 -.198E-03 0.630E-03
   -.451E+02 0.451E+02 -.451E+02   0.484E+02 -.484E+02 0.484E+02   -.330E+01 0.329E+01 -.330E+01   0.344E-02 -.112E-02 0.218E-02
   -.451E+02 -.452E+02 0.451E+02   0.484E+02 0.485E+02 -.484E+02   -.332E+01 -.329E+01 0.328E+01   0.544E-02 0.257E-04 0.499E-03
   0.452E+02 0.451E+02 0.452E+02   -.485E+02 -.484E+02 -.485E+02   0.330E+01 0.329E+01 0.329E+01   -.414E-02 -.224E-02 -.149E-02
   0.452E+02 -.452E+02 -.451E+02   -.485E+02 0.485E+02 0.483E+02   0.330E+01 -.330E+01 -.329E+01   -.276E-02 0.944E-03 0.109E-02
   0.452E+02 -.451E+02 -.452E+02   -.485E+02 0.483E+02 0.485E+02   0.330E+01 -.329E+01 -.330E+01   -.276E-02 0.109E-02 0.944E-03
   0.452E+02 0.452E+02 0.451E+02   -.485E+02 -.485E+02 -.484E+02   0.330E+01 0.329E+01 0.329E+01   -.414E-02 -.149E-02 -.224E-02
   -.451E+02 -.451E+02 0.451E+02   0.484E+02 0.484E+02 -.484E+02   -.330E+01 -.330E+01 0.329E+01   0.344E-02 0.218E-02 -.112E-02
   -.451E+02 0.451E+02 -.452E+02   0.484E+02 -.484E+02 0.485E+02   -.332E+01 0.328E+01 -.329E+01   0.544E-02 0.499E-03 0.257E-04
   -.452E+02 -.452E+02 0.451E+02   0.485E+02 0.485E+02 -.484E+02   -.330E+01 -.330E+01 0.329E+01   0.272E-02 0.757E-03 -.136E-02
   -.452E+02 0.451E+02 -.452E+02   0.485E+02 -.484E+02 0.485E+02   -.330E+01 0.329E+01 -.330E+01   0.272E-02 -.136E-02 0.757E-03
   0.452E+02 -.451E+02 -.451E+02   -.485E+02 0.484E+02 0.484E+02   0.332E+01 -.328E+01 -.328E+01   -.568E-02 -.108E-02 -.108E-02
   0.450E+02 0.452E+02 0.452E+02   -.483E+02 -.485E+02 -.485E+02   0.329E+01 0.329E+01 0.329E+01   -.538E-02 -.331E-02 -.331E-02
   -.452E+02 -.451E+02 0.451E+02   0.485E+02 0.484E+02 -.484E+02   -.330E+01 -.329E+01 0.329E+01   0.330E-02 0.945E-03 -.597E-03
   -.452E+02 0.451E+02 -.451E+02   0.485E+02 -.484E+02 0.484E+02   -.330E+01 0.329E+01 -.329E+01   0.330E-02 -.597E-03 0.945E-03
   0.451E+02 -.451E+02 -.451E+02   -.484E+02 0.483E+02 0.483E+02   0.331E+01 -.329E+01 -.329E+01   -.310E-02 0.155E-02 0.155E-02
   0.448E+02 0.453E+02 0.453E+02   -.481E+02 -.486E+02 -.486E+02   0.329E+01 0.329E+01 0.329E+01   -.524E-02 -.181E-02 -.181E-02
   0.196E-01 -.187E-01 -.187E-01   -.200E-01 0.209E-01 0.209E-01   0.237E-03 -.230E-02 -.230E-02   -.572E-06 -.140E-03 -.140E-03
   -.334E-01 -.829E-01 -.829E-01   0.377E-01 0.857E-01 0.857E-01   -.638E-02 -.334E-02 -.334E-02   0.558E-03 0.335E-03 0.335E-03
   -.160E-02 0.715E-01 0.728E-01   0.128E-02 -.747E-01 -.745E-01   0.723E-03 0.334E-02 0.197E-02   -.227E-03 -.187E-04 -.510E-03
   -.160E-02 0.728E-01 0.715E-01   0.128E-02 -.745E-01 -.747E-01   0.723E-03 0.197E-02 0.334E-02   -.227E-03 -.510E-03 -.187E-04
   0.503E-01 -.153E-02 -.153E-02   -.479E-01 0.112E-02 0.112E-02   -.747E-02 0.254E-02 0.254E-02   0.338E-02 -.144E-02 -.144E-02
   0.281E+00 0.822E-01 0.822E-01   -.285E+00 -.822E-01 -.822E-01   0.783E-02 -.653E-03 -.653E-03   -.260E-02 0.547E-03 0.547E-03
   -.146E+00 -.121E+00 -.151E-02   0.146E+00 0.123E+00 0.203E-02   0.603E-03 -.403E-02 -.291E-02   -.639E-03 0.107E-02 0.168E-02
   -.146E+00 -.151E-02 -.121E+00   0.146E+00 0.203E-02 0.123E+00   0.603E-03 -.291E-02 -.403E-02   -.639E-03 0.168E-02 0.107E-02
   0.257E-01 0.720E-02 0.720E-02   -.158E-13 0.623E-13 0.712E-13   -.222E-01 -.225E-02 -.225E-02   0.124E-02 -.342E-02 -.342E-02

 POSITION                                       TOTAL-FORCE (eV/Angst)
      9.80065      2.50749      2.50749        -0.006075      0.000107      0.000107
      9.79600      7.52192      7.52192        -0.002373     -0.000235     -0.000235
      0.23127      2.50804      7.52142         0.002646      0.000054     -0.000870
      0.23127      7.52142      2.50804         0.002646     -0.000870      0.000054
      2.50685      2.50891      9.79377         0.000739      0.000069      0.002423
      2.50697      7.52208      0.23359         0.000126     -0.000101     -0.000982
      7.52386      2.50580      0.23345         0.000594     -0.001824     -0.001720
      7.52118      7.52195      9.79619        -0.000125     -0.000101      0.000730
      2.50685      9.79377      2.50891         0.000739      0.002423      0.000069
      2.50697      0.23359      7.52208         0.000126     -0.000982     -0.000101
      7.52118      9.79619      7.52195        -0.000125      0.000730     -0.000101
      7.52386      0.23345      2.50580         0.000594     -0.001720     -0.001824
      2.50658      7.52240      4.78162        -0.000143     -0.000003      0.001020
      2.50803      2.50963      5.24786        -0.001327     -0.000147     -0.001704
      7.52117      7.52236      5.24821        -0.000377      0.000238     -0.000767
      7.52014      2.50671      4.78037        -0.000397     -0.001306      0.001769
      2.50658      4.78162      7.52240        -0.000143      0.001020     -0.000003
      2.50803      5.24786      2.50963        -0.001327     -0.001704     -0.000147
      7.52014      4.78037      2.50671        -0.000397      0.001769     -0.001306
      7.52117      5.24821      7.52236        -0.000377     -0.000767      0.000238
      4.78270      2.50809      7.52200        -0.002537      0.000556      0.000303
      4.78270      7.52200      2.50809        -0.002537      0.000303      0.000556
      5.24608      2.50268      2.50268         0.003578      0.002134      0.002134
      5.24603      7.51984      7.51984         0.002162     -0.000033     -0.000033
      5.01456      5.01376      5.01376         0.001973      0.002070      0.002070
      5.01311     10.02767     10.02767         0.002387      0.003878      0.003878
      0.00007      5.01527      0.00024         0.000669      0.001016      0.001987
      0.00007      0.00024      5.01527         0.000669      0.001987      0.001016
      1.18371      8.84498      6.19962        -0.001417     -0.000611      0.000134
      1.18668      1.18304      3.83278        -0.004893      0.002731     -0.003769
      8.84426      8.84566      3.83137         0.000929     -0.002989     -0.002731
      8.84360      1.18457      6.19799         0.002715     -0.000230      0.000666
      8.84360      6.19799      1.18457         0.002715      0.000666     -0.000230
      8.84426      3.83137      8.84566         0.000929     -0.002731     -0.002989
      1.18371      6.19962      8.84498        -0.001417      0.000134     -0.000611
      1.18668      3.83278      1.18304        -0.004893     -0.003769      0.002731
      6.19809      1.18406      8.84579        -0.001534      0.001292     -0.002114
      6.19809      8.84579      1.18406        -0.001534     -0.002114      0.001292
      3.82528      1.18105      1.18105         0.006845      0.003415      0.003415
      3.83039      8.84305      8.84305         0.000989     -0.000239     -0.000239
      6.19941      6.19824      3.83102        -0.001527      0.001304     -0.001535
      6.19941      3.83102      6.19824        -0.001527     -0.001535      0.001304
      3.82871      6.19684      6.19684         0.002554      0.000062      0.000062
      3.83245      3.82890      3.82890         0.001212     -0.002171     -0.002171
      7.52109      7.52213      7.52213        -0.000208     -0.000289     -0.000289
      7.52328      2.50686      2.50686        -0.001511     -0.000164     -0.000164
      2.50699      7.52097      2.50766         0.000081      0.000083     -0.000263
      2.50699      2.50766      7.52097         0.000081     -0.000263      0.000083
     -0.00004      0.00060      0.00060        -0.001714      0.000615      0.000615
      0.00206      5.01481      5.01481         0.001834     -0.000120     -0.000120
      5.01354     10.02806      5.01395        -0.000050     -0.000928     -0.000710
      5.01354      5.01395     10.02806        -0.000050     -0.000710     -0.000928
    total drift:                                0.004714      0.001525      0.001525

  FREE ENERGIE OF THE ION-ELECTRON SYSTEM (eV)
  free  energy   TOTEN  =      -268.23439044 eV

  energy  without entropy=     -268.23439044  energy(sigma->0) =     -268.23439044

 d Force = 0.5252863E-04[ 0.285E-04, 0.766E-04]  d Energy = 0.6530423E-04-0.128E-04
 d Force =-0.2957526E+00[-0.296E+00,-0.296E+00]  d Ewald  =-0.2957526E+00-0.544E-08

 stress matrix after NEB project (eV)
     -0.67317      0.00018      0.00018
      0.00018     -0.45563     -0.01254
      0.00018     -0.01254     -0.45563
  FORCES: max atom, RMS     0.008378    0.003061
  FORCE total and by dimension    0.022070    0.006845
  Stress total and by dimension    0.932020    0.673169
 Quasi-Newton relaxation of ions (Broydens 2nd method)
  g(Force)  = 0.235E-04   g(Stress)= 0.000E+00

 retain information from N=  1 steps
 eigenvalues of (default step * inverse Hessian matrix)
  average eigenvalue of G=   1.1150
 eigenvalue spectrum of G is  1.1150

 reached required accuracy - stopping structural energy minimisation