 vasp.6.4.1 05Apr23 (build Jun 07 2023 15:38:11) complex

 executed on             LinuxIFC date 2023.10.16  15:22:47

 INCAR:
   GGA = PE
   PREC = Accu
   EDIFF = 1.e-6
   EDIFFG = -1.e-3
   ENCUT = 520.
   NELM = 100
   NELMDL = -10
   LASPH = .TRUE.
   LREAL = Auto
   LMAXMIX = 4
   ISPIN = 2
   LDIAG = .TRUE.
   LPLANE = .TRUE.
   IVDW = 12
   SIGMA = 0.03
   ISMEAR = 0
   NSW = 1000    number of steps for IOM
   IBRION = 2    ionic relax: 0-MD 1-quasi-New 2-CG
   ISIF = 2    ionic relaxation + stress tensor calcn.
   LCHARG = .FALSE.
   LWAVE = .FALSE.
   ALGO = F
   KPAR = 1
   NPAR = 4
   POTIM = 0.2

 POTCAR:    PAW_PBE Li_sv_GW 25Mar2010
 POTCAR:    PAW_PBE P_GW 19Mar2012
 POTCAR:    PAW_PBE S_GW 19Mar2012
 POTCAR:    PAW_PBE Cl_GW 19Mar2012
|           W    W    AA    RRRRR   N    N  II  N    N   GGGG   !!!           |
|           W    W   A  A   R    R  NN   N  II  NN   N  G    G  !!!           |
|           W    W  A    A  R    R  N N  N  II  N N  N  G       !!!           |
|           W WW W  AAAAAA  RRRRR   N  N N  II  N  N N  G  GGG   !            |
|           WW  WW  A    A  R   R   N   NN  II  N   NN  G    G                |
|           W    W  A    A  R    R  N    N  II  N    N   GGGG   !!!           |
|     You use a magnetic or noncollinear calculation, but did not specify     |
|     the initial magnetic moment with the MAGMOM tag. Note that a            |
|     default of 1 will be used for all atoms. This ferromagnetic setup       |
|     may break the symmetry of the crystal, in particular it may rule        |
|     out finding an antiferromagnetic solution. Thence, we recommend         |
|     setting the initial magnetic moment manually or verifying carefully     |
|     that this magnetic setup is desired.                                    |

   TITEL  = PAW_PBE Li_sv_GW 25Mar2010
   POMASS =    7.010; ZVAL   =    3.000    mass and valenz
   ENMAX  =  433.699; ENMIN  =  325.274 eV

   TITEL  = PAW_PBE P_GW 19Mar2012
   POMASS =   30.974; ZVAL   =    5.000    mass and valenz
   ENMAX  =  255.040; ENMIN  =  191.280 eV

[...]

   TITEL  = PAW_PBE Cl_GW 19Mar2012
   POMASS =   35.453; ZVAL   =    7.000    mass and valenz
   ENMAX  =  262.472; ENMIN  =  196.854 eV

 Optimization of the real space projectors (new method)

 maximal supplied QI-value         = 25.13
 optimisation between [QCUT,QGAM] = [ 11.56, 23.12] = [ 37.43,149.72] Ry
 Optimized for a Real-space Cutoff    1.28 Angstroem

   l    n(q)    QCUT    max X(q) W(low)/X(q) W(high)/X(q)  e(spline)
   0      9    11.561    87.733    0.11E-03    0.32E-04    0.56E-06
   0      9    11.561    82.800    0.11E-03    0.35E-04    0.56E-06
   0      9    11.561     2.509    0.22E-03    0.42E-04    0.79E-06
   1      8    11.561    12.580    0.94E-04    0.26E-03    0.21E-06
   1      8    11.561     1.319    0.33E-04    0.15E-03    0.19E-06
   2      8    11.561     1.993    0.36E-04    0.89E-04    0.26E-06
 Optimization of the real space projectors (new method)

[...]

   l    n(q)    QCUT    max X(q) W(low)/X(q) W(high)/X(q)  e(spline)
   0     10    11.508     7.541    0.34E-04    0.13E-04    0.69E-07
   0     10    11.508     1.809    0.49E-04    0.27E-04    0.14E-06
   1     10    11.508     4.107    0.27E-05    0.41E-05    0.14E-06
   1     10    11.508     2.196    0.26E-05    0.25E-05    0.22E-06
   2      9    11.508     4.265    0.18E-03    0.11E-03    0.81E-06
   2      9    11.508     1.925    0.97E-04    0.76E-04    0.47E-06
 Optimization of the real space projectors (new method)

 maximal supplied QI-value         = 19.84
 optimisation between [QCUT,QGAM] = [ 11.51, 23.22] = [ 37.09,150.92] Ry
 Optimized for a Real-space Cutoff    1.21 Angstroem

   l    n(q)    QCUT    max X(q) W(low)/X(q) W(high)/X(q)  e(spline)
   0      8    11.508     6.761    0.57E-04    0.57E-04    0.35E-07
   0      8    11.508     1.642    0.14E-03    0.14E-03    0.91E-07
   1      8    11.508     3.519    0.20E-04    0.72E-04    0.47E-07
   1      8    11.508     2.150    0.27E-04    0.11E-03    0.89E-07
   2      7    11.508     2.976    0.19E-03    0.33E-03    0.16E-06
   2      7    11.508     1.494    0.14E-03    0.29E-03    0.14E-06
  PAW_PBE Li_sv_GW 25Mar2010            :
  PAW_PBE P_GW 19Mar2012                :
  PAW_PBE S_GW 19Mar2012                :
  PAW_PBE Cl_GW 19Mar2012               :

 POSCAR: Li24 P4 S20 Cl4
  positions in direct lattice
  velocities in cartesian coordinates
 exchange correlation table for  LEXCH =        8
   RHO(1)=    0.500       N(1)  =     2000
   RHO(2)=  100.500       N(2)  =     4000

 VTST: version 4.1, (05/19/21)

 CHAIN: initializing optimizer

 OPT: Using VASP Conjugate-Gradient optimizer
 CHAIN: Read ICHAIN            0

 POSCAR: Li24 P4 S20 Cl4
  positions in direct lattice
  velocities in cartesian coordinates

 ion  position               nearest neighbor table
   1  0.966  0.328  0.330-
   2  0.991  0.787  0.808-
   3  0.028  0.201  0.821-
   4  0.021  0.700  0.283-
   5  0.313  0.325  0.967-
   6  0.313  0.695  0.014-
   7  0.676  0.314  0.024-
   8  0.666  0.689  0.956-
   9  0.171  0.967  0.169-
  10  0.218  0.010  0.810-
  11  0.801  0.978  0.790-
  12  0.824  0.045  0.163-
  13  0.221  0.698  0.476-
  14  0.290  0.158  0.526-
  15  0.810  0.714  0.512-
  16  0.707  0.184  0.475-
  17  0.186  0.452  0.665-
  18  0.314  0.520  0.220-
  19  0.699  0.493  0.227-
  20  0.830  0.520  0.698-
  21  0.486  0.211  0.710-
  22  0.464  0.843  0.314-
  23  0.512  0.201  0.286-
  24  0.543  0.815  0.658-
  25  0.501  0.501  0.514-  42 2.04  43 2.04  44 2.06  41 2.06
  26  0.506  0.997  0.998-  38 2.04  40 2.05  39 2.05  37 2.05
  27  1.000  0.497  0.003-  36 2.05  34 2.05  33 2.05  35 2.06
  28  0.006  0.005  0.491-  30 2.05  31 2.05  32 2.05  29 2.06
  29  0.131  0.882  0.612-  28 2.06
  30  0.118  0.126  0.359-  28 2.05
  31  0.878  0.892  0.365-  28 2.05
  32  0.894  0.132  0.620-  28 2.05
  33  0.872  0.631  0.106-  27 2.05
  34  0.873  0.373  0.886-  27 2.05
  35  0.132  0.599  0.871-  27 2.06
  36  0.120  0.380  0.132-  27 2.05
  37  0.631  0.124  0.882-  26 2.05
  38  0.628  0.882  0.126-  26 2.04
  39  0.368  0.115  0.107-  26 2.05
  40  0.404  0.865  0.866-  26 2.05
  41  0.605  0.642  0.391-  25 2.06
  42  0.639  0.381  0.620-  25 2.04
  43  0.381  0.615  0.645-  25 2.04
  44  0.371  0.374  0.402-  25 2.06
  45  0.763  0.749  0.742-
  46  0.744  0.259  0.249-
  47  0.251  0.750  0.243-
  48  0.254  0.238  0.751-
  49  0.008  0.992  0.965-
  50  0.001  0.533  0.492-
  51  0.505  0.028  0.497-
  52  0.496  0.499  0.035-

  LATTYP: Found a simple cubic cell.
 ALAT       =     9.6593030851

  Lattice vectors:

 A1 = (   9.6593030851,   0.0000000000,   0.0000000000)
 A2 = (   0.0000000000,   9.6593030851,   0.0000000000)
 A3 = (   0.0000000000,   0.0000000000,   9.6593030851)

Analysis of symmetry for initial positions (statically):
 Subroutine PRICEL returns:
 Original cell was already a primitive cell.

 Routine SETGRP: Setting up the symmetry group for a
 simple cubic supercell.

 Subroutine GETGRP returns: Found  1 space group operations
 (whereof  1 operations were pure point group operations)
 out of a pool of 48 trial point group operations.

The static configuration has the point symmetry C_1 .

Analysis of symmetry for dynamics (positions and initial velocities):
 Subroutine PRICEL returns:
 Original cell was already a primitive cell.

[...]

The dynamic configuration has the point symmetry C_1 .

Analysis of structural, dynamic, and magnetic symmetry:
 Subroutine PRICEL returns:
 Original cell was already a primitive cell.

 Routine SETGRP: Setting up the symmetry group for a
 simple cubic supercell.

 Subroutine GETGRP returns: Found  1 space group operations
 (whereof  1 operations were pure point group operations)
 out of a pool of 48 trial point group operations.

The overall configuration has the point symmetry C_1 .

 Subroutine INISYM returns: Found  1 space group operations
 (whereof  1 operations are pure point group operations),
 and found     1 'primitive' translations

                                     Primitive cell

  volume of cell :     901.2336

  direct lattice vectors                    reciprocal lattice vectors
     9.659303085  0.000000000  0.000000000     0.103527138  0.000000000  0.000000000
     0.000000000  9.659303085  0.000000000     0.000000000  0.103527138  0.000000000
     0.000000000  0.000000000  9.659303085     0.000000000  0.000000000  0.103527138

  length of vectors
     9.659303085  9.659303085  9.659303085     0.103527138  0.103527138  0.103527138

  position of ions in fractional coordinates (direct lattice)
     0.966045363  0.328335711  0.330481301
     0.991298872  0.786643465  0.808329893
     0.028461990  0.200968154  0.820906836
     0.020873939  0.699938737  0.282615189
     0.312766762  0.324507815  0.967153079
     0.313491874  0.694802777  0.013837580
     0.675925210  0.313729465  0.023865349
     0.665868263  0.688619297  0.956102970
     0.171049266  0.966833880  0.169074966
     0.218407514  0.010042841  0.810443177
     0.800755564  0.978353599  0.790343131
     0.823626769  0.045209113  0.162834396
     0.220663267  0.697525225  0.475946334
     0.289777047  0.157541889  0.525827983
     0.810010223  0.714112385  0.512244870
     0.707233010  0.184179774  0.474826202
     0.186091511  0.452074746  0.665372452
     0.313697034  0.519674991  0.219645714
     0.699304167  0.493009450  0.227104720
     0.830421443  0.519890527  0.697908049
     0.486476884  0.210518640  0.709982639
     0.463780341  0.843225717  0.314055651
     0.512271382  0.200942403  0.286090473
     0.543430961  0.815197372  0.657511938
     0.501345077  0.500585863  0.513517269
     0.506197137  0.996789216  0.997827996
     0.999717928  0.496913476  0.002538581
     0.005646823  0.004501508  0.491371661
     0.131471903  0.881810783  0.611811306
     0.117833272  0.126120210  0.358600765
     0.877552512  0.891640738  0.364654731
     0.893924672  0.132238195  0.619551932
     0.871699338  0.631404776  0.106354238
     0.872906126  0.372965696  0.885738255
     0.132133895  0.599195313  0.870543872
     0.119740744  0.379916527  0.132108224
     0.630971080  0.123852516  0.881728583
     0.628443841  0.881706975  0.126088927
     0.367782323  0.115181993  0.107401228
     0.404297225  0.865263848  0.865546478
     0.604762353  0.641735614  0.390702028
     0.639290529  0.380564403  0.619877839
     0.381333762  0.615109446  0.644823907
     0.370818902  0.373570902  0.402202785
     0.762602039  0.748819036  0.742354531
     0.743613908  0.259165783  0.249136903
     0.251390390  0.750279135  0.242517623
     0.254313512  0.237967569  0.750543232
     0.007520642  0.991976619  0.964785920
     0.000784122  0.533259929  0.491793399
     0.504746643  0.027587135  0.497230843
     0.496238754  0.498823373  0.034663376

  ion indices of the primitive-cell ions
   primitive index   ion index
                 1           1
                 2           2
                 3           3
                 4           4
                 5           5
                 6           6
                 7           7
                 8           8
[...]
      5     -42.4823      1.00000
      6     -42.4652      1.00000
      7     -42.4464      1.00000
      8     -42.4363      1.00000
      9     -42.3951      1.00000
     10     -42.3900      1.00000
     11     -42.3608      1.00000
     12     -42.3471      1.00000
     13     -42.3351      1.00000
     14     -42.3295      1.00000
     15     -42.3266      1.00000
     16     -42.3077      1.00000
     17     -42.3068      1.00000
     18     -42.3024      1.00000
     19     -42.2955      1.00000
     20     -42.2941      1.00000
     21     -42.2826      1.00000
     22     -42.2548      1.00000
     23     -42.2489      1.00000
     24     -42.2389      1.00000
     25     -13.0737      1.00000
     26     -12.9796      1.00000
     27     -12.9550      1.00000
     28     -12.9441      1.00000
     29     -12.6543      1.00000
     30     -12.6217      1.00000
     31     -12.5884      1.00000
     32     -12.5738      1.00000
     33     -10.2960      1.00000
     34     -10.2412      1.00000
     35     -10.2335      1.00000
     36     -10.0965      1.00000
     37     -10.0603      1.00000
     38     -10.0415      1.00000
     39     -10.0098      1.00000
     40      -9.9675      1.00000
     41      -9.9374      1.00000
     42      -9.9094      1.00000
     43      -9.8623      1.00000
     44      -9.8360      1.00000
     45      -8.3331      1.00000
     46      -8.3281      1.00000
     47      -8.2838      1.00000
     48      -8.2671      1.00000
     49      -6.1190      1.00000
     50      -5.6847      1.00000
     51      -5.6636      1.00000
     52      -5.6098      1.00000
     53      -3.2364      1.00000
     54      -3.1753      1.00000
     55      -3.1704      1.00000
     56      -2.8402      1.00000
     57      -2.7252      1.00000
     58      -2.6647      1.00000
     59      -2.5090      1.00000
     60      -2.4757      1.00000
[...]
    162       9.1199      0.00000
    163       9.1939      0.00000
    164       9.2100      0.00000
    165       9.2427      0.00000
    166       9.2982      0.00000
    167       9.3937      0.00000
    168       9.4247      0.00000
    169       9.5136      0.00000
    170       9.5599      0.00000
    171       9.6174      0.00000
    172       9.6800      0.00000
    173       9.7291      0.00000
    174       9.8230      0.00000
    175       9.8617      0.00000
    176       9.9578      0.00000

[...]

 soft charge-density along one line, spin component           2
         0         1         2         3         4         5         6         7         8         9
 total charge-density along one line

------------------------ aborting loop because EDIFF is reached ----------------------------------------

         DFTD3 V3.0 Rev 1
 Edisp (eV)  -13.58302

 E6    (eV) :    -8.3687
 E8    (eV) :    -5.2143
 % E8        : 38.39

  FORCE on cell =-STRESS in cart. coord.  units (eV):
  Direction    XX          YY          ZZ          XY          YZ          ZX
  Alpha Z   301.20659   301.20659   301.20659
  Ewald   -2911.85289 -2950.80548 -2965.40676   -22.68674   -10.88486    20.49653
  Hartree   751.56149   727.64312   721.14506    -4.31773    -4.31409     4.82770
  E(xc)    -947.75449  -947.79216  -947.85194    -0.08217    -0.02026     0.04383
  Local   -1545.58924 -1485.58011 -1466.16848    23.22207    14.00359   -22.69533
  n-local  1481.33035  1481.54211  1481.80440    -0.51123    -0.01462     0.34193
  augment  -356.64966  -356.83242  -357.06064    -0.19864    -0.00330     0.00495
  Kinetic  3241.27607  3244.93850  3247.57768     4.41408     0.60887    -1.29821
  Fock        0.00000     0.00000     0.00000     0.00000     0.00000     0.00000
  vdW       -14.36429   -14.38239   -14.38380    -0.00994    -0.01646    -0.00302
  Total      -0.83605    -0.06223     0.86211    -0.17028    -0.64112     1.71839
  in kB      -1.48631    -0.11062     1.53263    -0.30272    -1.13977     3.05489

 VOLUME and BASIS-vectors are now :
  energy-cutoff  :      520.00
  volume of cell :      901.23
      direct lattice vectors                 reciprocal lattice vectors
     9.659303085  0.000000000  0.000000000     0.103527138  0.000000000  0.000000000
     0.000000000  9.659303085  0.000000000     0.000000000  0.103527138  0.000000000
     0.000000000  0.000000000  9.659303085     0.000000000  0.000000000  0.103527138

  length of vectors
     9.659303085  9.659303085  9.659303085     0.103527138  0.103527138  0.103527138

 FORCES acting on ions
    electron-ion (+dipol)            ewald-force                    non-local-force                 convergence-correction
   0.414E+00 -.628E+01 -.107E+02   -.989E+00 0.520E+01 0.937E+01   0.572E+00 0.108E+01 0.130E+01   0.175E-03 -.346E-04 0.169E-04
   -.495E+01 0.238E+01 -.704E+01   0.406E+01 -.352E+01 0.628E+01   0.892E+00 0.114E+01 0.761E+00   -.445E-04 0.634E-04 0.280E-04
   0.199E+01 -.698E+01 -.731E+01   -.143E+01 0.797E+01 0.647E+01   -.552E+00 -.987E+00 0.840E+00   0.703E-04 -.899E-04 0.712E-04
   0.321E+01 0.193E+01 0.321E+01   -.248E+01 -.977E+00 -.449E+01   -.728E+00 -.954E+00 0.128E+01   0.121E-03 -.909E-04 0.178E-04
   -.744E+01 -.785E+01 0.207E+01   0.653E+01 0.644E+01 -.317E+01   0.915E+00 0.142E+01 0.110E+01   0.165E-03 -.200E-03 0.108E-03
   -.235E+01 0.672E+00 0.559E+01   0.145E+01 0.427E+00 -.513E+01   0.904E+00 -.110E+01 -.456E+00   -.109E-05 -.469E-04 0.728E-05
   0.586E+01 -.677E+01 0.693E+01   -.459E+01 0.539E+01 -.629E+01   -.127E+01 0.138E+01 -.641E+00   -.179E-03 -.217E-04 -.226E-04
   0.920E+01 0.106E+02 0.402E+01   -.773E+01 -.954E+01 -.500E+01   -.147E+01 -.110E+01 0.978E+00   -.416E-05 0.632E-05 0.804E-05
   0.108E+02 -.658E+00 0.685E+01   -.948E+01 -.263E-01 -.560E+01   -.133E+01 0.682E+00 -.124E+01   0.357E-05 0.144E-03 -.428E-04
   -.201E+01 0.714E+01 -.655E+01   0.316E+01 -.613E+01 0.545E+01   -.116E+01 -.100E+01 0.111E+01   0.720E-04 0.274E-03 0.570E-04
   0.544E+01 -.618E+00 -.294E+01   -.640E+01 -.150E+00 0.200E+01   0.970E+00 0.766E+00 0.939E+00   -.356E-04 0.622E-04 -.246E-06
   -.159E+02 -.331E+00 0.976E+01   0.143E+02 0.119E+01 -.829E+01   0.158E+01 -.859E+00 -.147E+01   0.512E-04 0.811E-04 -.379E-04
   -.285E+01 0.499E+00 -.659E+00   0.366E+01 0.605E+00 0.195E+00   -.812E+00 -.111E+01 0.459E+00   0.115E-03 0.232E-04 -.864E-04
   0.209E+01 0.514E+01 0.484E+01   -.307E+01 -.424E+01 -.425E+01   0.977E+00 -.898E+00 -.586E+00   -.212E-04 -.332E-03 0.274E-03
   0.231E+01 0.230E+01 0.589E+01   -.327E+01 -.105E+01 -.497E+01   0.955E+00 -.126E+01 -.922E+00   -.383E-04 0.610E-05 0.242E-04
   -.419E+01 0.642E+01 -.333E+00   0.519E+01 -.528E+01 -.339E+00   -.100E+01 -.114E+01 0.667E+00   -.679E-04 0.156E-05 0.101E-03
   0.124E+02 0.501E+01 0.868E+01   -.111E+02 -.597E+01 -.714E+01   -.129E+01 0.953E+00 -.154E+01   0.238E-03 -.724E-04 -.287E-03
   -.374E+00 0.368E+01 0.329E+00   -.557E+00 -.291E+01 0.647E+00   0.930E+00 -.765E+00 -.982E+00   -.361E-04 -.907E-04 0.251E-04
   -.340E+01 -.517E+01 -.188E+01   0.403E+01 0.438E+01 0.280E+01   -.627E+00 0.786E+00 -.937E+00   0.128E-03 -.582E-04 0.111E-03
   -.407E+01 0.784E+01 0.525E+01   0.276E+01 -.733E+01 -.390E+01   0.131E+01 -.507E+00 -.135E+01   0.145E-03 -.428E-04 -.651E-04
   -.331E+01 -.166E+01 -.289E+01   0.268E+01 0.246E+01 0.418E+01   0.627E+00 -.802E+00 -.130E+01   -.229E-03 -.405E-03 -.175E-03
   0.645E+00 -.914E+01 -.105E+02   -.140E+01 0.776E+01 0.924E+01   0.754E+00 0.138E+01 0.123E+01   -.191E-03 0.833E-04 -.547E-04
   0.468E+01 0.548E+01 0.310E+01   -.383E+01 -.452E+01 -.398E+01   -.847E+00 -.960E+00 0.886E+00   -.199E-03 0.177E-03 -.187E-03
   0.188E+01 -.973E+01 0.112E+02   -.911E+00 0.859E+01 -.960E+01   -.966E+00 0.113E+01 -.162E+01   -.991E-04 0.160E-03 0.887E-04
   -.633E+01 -.130E+01 -.418E+01   0.623E+01 0.132E+01 0.488E+01   0.936E-01 -.135E-01 -.695E+00   -.332E-03 -.424E-04 0.543E-04
   0.193E+01 0.925E+00 -.476E+01   -.174E+01 -.125E+01 0.492E+01   -.188E+00 0.325E+00 -.156E+00   -.455E-04 -.588E-04 -.184E-03
   0.268E+00 -.606E+00 -.721E+01   -.228E+00 0.415E+00 0.726E+01   -.402E-01 0.191E+00 -.517E-01   0.224E-04 -.326E-04 -.902E-04
   0.127E+01 0.738E+00 0.417E+01   -.126E+01 -.403E+00 -.457E+01   -.127E-01 -.328E+00 0.388E+00   0.145E-03 0.413E-04 0.258E-04
   -.506E+02 0.389E+02 -.238E+02   0.545E+02 -.423E+02 0.264E+02   -.389E+01 0.336E+01 -.256E+01   0.228E-03 0.516E-03 -.143E-03
   -.316E+02 -.425E+02 0.535E+02   0.339E+02 0.454E+02 -.569E+02   -.229E+01 -.291E+01 0.332E+01   0.198E-03 0.133E-03 -.410E-03
   0.536E+02 0.201E+02 0.485E+02   -.574E+02 -.221E+02 -.518E+02   0.375E+01 0.193E+01 0.327E+01   0.104E-03 0.304E-03 0.223E-03
   0.315E+02 -.572E+02 -.235E+02   -.341E+02 0.613E+02 0.261E+02   0.259E+01 -.405E+01 -.262E+01   0.505E-04 0.146E-03 0.394E-04
   0.348E+02 -.546E+02 -.266E+02   -.375E+02 0.590E+02 0.287E+02   0.272E+01 -.443E+01 -.205E+01   0.174E-03 0.108E-03 -.131E-03
   0.420E+02 0.388E+02 0.314E+02   -.453E+02 -.417E+02 -.342E+02   0.326E+01 0.293E+01 0.275E+01   -.651E-04 -.100E-03 0.227E-03
   -.450E+02 -.294E+02 0.378E+02   0.487E+02 0.314E+02 -.412E+02   -.364E+01 -.194E+01 0.338E+01   -.228E-03 -.329E-03 -.134E-03
   -.240E+02 0.543E+02 -.425E+02   0.262E+02 -.581E+02 0.458E+02   -.218E+01 0.381E+01 -.325E+01   0.423E-03 -.266E-03 0.162E-03
   -.394E+02 -.383E+02 0.336E+02   0.426E+02 0.415E+02 -.362E+02   -.322E+01 -.317E+01 0.268E+01   -.298E-03 0.192E-04 -.155E-03
   -.470E+02 0.406E+02 -.474E+02   0.501E+02 -.433E+02 0.504E+02   -.307E+01 0.269E+01 -.299E+01   -.183E-03 0.255E-03 -.435E-03
   0.515E+02 -.352E+02 -.365E+02   -.554E+02 0.379E+02 0.392E+02   0.385E+01 -.276E+01 -.270E+01   -.386E-03 0.407E-03 0.381E-03
   0.265E+02 0.480E+02 0.439E+02   -.284E+02 -.515E+02 -.473E+02   0.190E+01 0.348E+01 0.342E+01   0.635E-04 0.432E-03 0.174E-03
   -.288E+02 -.494E+02 0.379E+02   0.311E+02 0.530E+02 -.413E+02   -.228E+01 -.366E+01 0.332E+01   -.528E-03 -.493E-04 -.152E-03
   -.470E+02 0.185E+02 -.467E+02   0.507E+02 -.212E+02 0.498E+02   -.369E+01 0.269E+01 -.312E+01   -.651E-06 -.119E-03 -.990E-04
   0.217E+02 -.318E+02 -.660E+02   -.238E+02 0.342E+02 0.701E+02   0.212E+01 -.235E+01 -.403E+01   0.186E-03 -.203E-04 0.448E-04
   0.533E+02 0.338E+02 0.314E+02   -.576E+02 -.364E+02 -.337E+02   0.427E+01 0.263E+01 0.233E+01   -.768E-03 0.830E-04 0.549E-03
   0.178E+02 0.551E+01 -.703E+01   -.181E+02 -.566E+01 0.733E+01   0.372E+00 0.143E+00 -.300E+00   0.102E-03 0.182E-03 -.312E-04
   -.216E+02 0.426E+01 0.333E+00   0.220E+02 -.444E+01 -.368E+00   -.439E+00 0.178E+00 0.352E-01   -.189E-03 0.252E-06 -.555E-04
   -.981E+00 -.169E+02 0.372E+01   0.112E+01 0.173E+02 -.380E+01   -.143E+00 -.374E+00 0.811E-01   -.156E-03 0.855E-04 0.584E-04
   0.203E+00 -.195E+02 -.203E+01   -.220E+00 0.199E+02 0.203E+01   0.158E-01 -.393E+00 -.105E-02   0.641E-03 -.738E-03 0.820E-04
   0.712E+01 0.316E+01 -.485E+02   -.736E+01 -.332E+01 0.492E+02   0.238E+00 0.162E+00 -.723E+00   0.185E-03 0.527E-04 -.203E-03
   0.111E+01 0.343E+02 0.142E+01   -.108E+01 -.349E+02 -.150E+01   -.359E-01 0.583E+00 0.818E-01   0.120E-03 -.242E-03 -.406E-03
   -.522E+01 0.374E+02 -.206E+00   0.539E+01 -.379E+02 0.383E+00   -.173E+00 0.561E+00 -.181E+00   -.171E-03 0.508E-03 0.110E-02
   -.627E+01 -.301E+01 0.337E+02   0.639E+01 0.311E+01 -.342E+02   -.117E+00 -.989E-01 0.522E+00   -.531E-03 -.426E-03 0.216E-03
   0.867E+00 0.357E+01 0.133E+01   0.284E-13 0.110E-12 -.213E-13   -.883E+00 -.356E+01 -.133E+01   -.110E-02 0.448E-03 0.689E-03

 POSITION                                       TOTAL-FORCE (eV/Angst)
      9.33131      3.17150      3.19229        -0.000041      0.000028     -0.000194
      9.57523      7.59838      7.80793         0.000115      0.000204     -0.000091
      0.27487      1.94116      7.92935         0.000006     -0.000042      0.000060
      0.20165      6.76095      2.72979        -0.000017     -0.000032      0.000064
      3.02098      3.13457      9.34198        -0.000089      0.000129     -0.000009
      3.02821      6.71142      0.13372         0.000121      0.000067      0.000010
      6.52909      3.03035      0.23051         0.000100      0.000047      0.000069
      6.43180      6.65165      9.23533         0.000067     -0.000209     -0.000077
      1.65229      9.33897      1.63322         0.000023     -0.000035      0.000080
      2.10971      0.09702      7.82823        -0.000001      0.000077     -0.000119
      7.73474      9.45019      7.63421         0.000027     -0.000036     -0.000168
      7.95571      0.43670      1.57289        -0.000224     -0.000130     -0.000076
      2.13136      6.73757      4.59730         0.000022      0.000000      0.000050
      2.79917      1.52209      5.07897         0.000069      0.000058      0.000219
      7.82428      6.89791      4.94800         0.000086     -0.000070      0.000007
      6.83136      1.77906      4.58652        -0.000018     -0.000043     -0.000160
      1.79732      4.36683      6.42724        -0.000110      0.000193     -0.000024
      3.03002      5.01968      2.12154         0.000031      0.000054      0.000009
      6.75459      4.76209      2.19360        -0.000102     -0.000041     -0.000070
      8.02111      5.02178      6.74133        -0.000016     -0.000003     -0.000067
      4.69897      2.03360      6.85816        -0.000149      0.000000     -0.000034
      4.47984      8.14483      3.03365         0.000146     -0.000191      0.000129
      4.94829      1.94069      2.76337         0.000157     -0.000049      0.000027
      5.24917      7.87417      6.35101        -0.000050     -0.000081     -0.000114
      4.84263      4.83529      4.96019         0.000315      0.000140      0.000160
      4.88955      9.62822      9.63826         0.000139     -0.000305      0.000229
      9.65658      4.79986      0.02448        -0.000267      0.000114      0.000323
      0.05453      0.04340      4.74632         0.000091      0.000057      0.000199
      1.26990      8.51764      5.90970        -0.000340     -0.000060     -0.000092
      1.13823      1.21826      3.46390         0.000198      0.000146     -0.000292
      8.47658      8.61260      3.52227         0.000279      0.000209      0.000217
      8.63466      1.27730      5.98444        -0.000125     -0.000162      0.000035
      8.41998      6.09886      1.02737        -0.000064     -0.000088     -0.000256
      8.43170      3.60259      8.55555         0.000217      0.000232     -0.000065
      1.27639      5.78789      8.40898        -0.000253     -0.000140      0.000242
      1.15655      3.66971      1.27610         0.000293     -0.000304      0.000189
      6.09479      1.19635      8.51689         0.000111     -0.000188     -0.000084
      6.07028      8.51671      1.21798        -0.000376      0.000329     -0.000553
      3.55250      1.11259      1.03733        -0.000537      0.000515      0.000288
      3.90524      8.35785      8.36054         0.000454      0.000270      0.000155
      5.84174      6.19869      3.77399        -0.000222      0.000002      0.000283
      6.17505      3.67595      5.98761        -0.000186      0.000017      0.000125
      3.68334      5.94150      6.22852         0.000142     -0.000333     -0.000490
      3.58206      3.60838      3.88477        -0.000030     -0.000008     -0.000270
      7.36616      7.23305      7.17065         0.000085      0.000071      0.000124
      7.18285      2.50337      2.40650        -0.000045     -0.000138      0.000003
      2.42829      7.24717      2.34255         0.000014     -0.000118      0.000169
      2.45637      2.29871      7.24968         0.000063     -0.000132     -0.000177
      0.07266      9.58182      9.31923        -0.000141     -0.000273     -0.000163
      0.00758      5.15090      4.75043         0.000014      0.000116      0.000055
      4.87548      0.26641      4.80280         0.000043      0.000080      0.000031
      4.79337      4.81830      0.33475        -0.000023      0.000058      0.000097
    total drift:                               -0.016410      0.011423     -0.000723

  FREE ENERGIE OF THE ION-ELECTRON SYSTEM (eV)
  free  energy   TOTEN  =      -272.36840779 eV

  energy  without entropy=     -272.36840779  energy(sigma->0) =     -272.36840779

 d Force = 0.7777606E-06[-0.743E-07, 0.163E-05]  d Energy = 0.2979036E-05-0.220E-05
 d Force =-0.6580665E-04[-0.680E-04,-0.636E-04]  d Ewald  =-0.6580671E-04 0.691E-10

 stress matrix after NEB project (eV)
     -0.83605     -0.17028      1.71839
     -0.17028     -0.06223     -0.64112
      1.71839     -0.64112      0.86211
  FORCES: max atom, RMS     0.000797    0.000302
  FORCE total and by dimension    0.002176    0.000553
  Stress total and by dimension    2.869130    1.718391

 reached required accuracy - stopping structural energy minimisation