 vasp.6.4.1 05Apr23 (build Jun 07 2023 15:38:11) complex

 executed on             LinuxIFC date 2023.10.19  14:30:09

 INCAR:
   GGA = PE
   PREC = Accu
   EDIFF = 1.e-6
   EDIFFG = -1.e-3
   ENCUT = 520.
   NELM = 100
   NELMDL = -10
   LASPH = .TRUE.
   LREAL = Auto
   LMAXMIX = 4
   ISPIN = 2
   LDIAG = .TRUE.
   LPLANE = .TRUE.
   IVDW = 12
   SIGMA = 0.03
   ISMEAR = 0
   NSW = 1000    number of steps for IOM
   IBRION = 2    ionic relax: 0-MD 1-quasi-New 2-CG
   ISIF = 2    ionic relaxation + stress tensor calcn.
   LCHARG = .FALSE.
   LWAVE = .FALSE.
   ALGO = F
   KPAR = 1
   NPAR = 4
   POTIM = 0.2

 POTCAR:    PAW_PBE Li_sv_GW 25Mar2010
 POTCAR:    PAW_PBE P_GW 19Mar2012
 POTCAR:    PAW_PBE S_GW 19Mar2012
 POTCAR:    PAW_PBE Cl_GW 19Mar2012
|           W    W    AA    RRRRR   N    N  II  N    N   GGGG   !!!           |
|           W    W   A  A   R    R  NN   N  II  NN   N  G    G  !!!           |
|           W    W  A    A  R    R  N N  N  II  N N  N  G       !!!           |
|           W WW W  AAAAAA  RRRRR   N  N N  II  N  N N  G  GGG   !            |
|           WW  WW  A    A  R   R   N   NN  II  N   NN  G    G                |
|           W    W  A    A  R    R  N    N  II  N    N   GGGG   !!!           |
|     You use a magnetic or noncollinear calculation, but did not specify     |
|     the initial magnetic moment with the MAGMOM tag. Note that a            |
|     default of 1 will be used for all atoms. This ferromagnetic setup       |
|     may break the symmetry of the crystal, in particular it may rule        |
|     out finding an antiferromagnetic solution. Thence, we recommend         |
|     setting the initial magnetic moment manually or verifying carefully     |
|     that this magnetic setup is desired.                                    |

   TITEL  = PAW_PBE Li_sv_GW 25Mar2010
   POMASS =    7.010; ZVAL   =    3.000    mass and valenz
   ENMAX  =  433.699; ENMIN  =  325.274 eV

   TITEL  = PAW_PBE P_GW 19Mar2012
   POMASS =   30.974; ZVAL   =    5.000    mass and valenz
   ENMAX  =  255.040; ENMIN  =  191.280 eV

[...]

   TITEL  = PAW_PBE Cl_GW 19Mar2012
   POMASS =   35.453; ZVAL   =    7.000    mass and valenz
   ENMAX  =  262.472; ENMIN  =  196.854 eV

 Optimization of the real space projectors (new method)

 maximal supplied QI-value         = 25.13
 optimisation between [QCUT,QGAM] = [ 11.56, 23.12] = [ 37.43,149.72] Ry
 Optimized for a Real-space Cutoff    1.28 Angstroem

   l    n(q)    QCUT    max X(q) W(low)/X(q) W(high)/X(q)  e(spline)
   0      9    11.561    87.733    0.11E-03    0.32E-04    0.56E-06
   0      9    11.561    82.800    0.11E-03    0.35E-04    0.56E-06
   0      9    11.561     2.509    0.22E-03    0.42E-04    0.79E-06
   1      8    11.561    12.580    0.94E-04    0.26E-03    0.21E-06
   1      8    11.561     1.319    0.33E-04    0.15E-03    0.19E-06
   2      8    11.561     1.993    0.36E-04    0.89E-04    0.26E-06
 Optimization of the real space projectors (new method)

[...]

   l    n(q)    QCUT    max X(q) W(low)/X(q) W(high)/X(q)  e(spline)
   0     10    11.508     7.541    0.34E-04    0.13E-04    0.69E-07
   0     10    11.508     1.809    0.49E-04    0.27E-04    0.14E-06
   1     10    11.508     4.107    0.27E-05    0.41E-05    0.14E-06
   1     10    11.508     2.196    0.26E-05    0.25E-05    0.22E-06
   2      9    11.508     4.265    0.18E-03    0.11E-03    0.81E-06
   2      9    11.508     1.925    0.97E-04    0.76E-04    0.47E-06
 Optimization of the real space projectors (new method)

 maximal supplied QI-value         = 19.84
 optimisation between [QCUT,QGAM] = [ 11.51, 23.22] = [ 37.09,150.92] Ry
 Optimized for a Real-space Cutoff    1.21 Angstroem

   l    n(q)    QCUT    max X(q) W(low)/X(q) W(high)/X(q)  e(spline)
   0      8    11.508     6.761    0.57E-04    0.57E-04    0.35E-07
   0      8    11.508     1.642    0.14E-03    0.14E-03    0.91E-07
   1      8    11.508     3.519    0.20E-04    0.72E-04    0.47E-07
   1      8    11.508     2.150    0.27E-04    0.11E-03    0.89E-07
   2      7    11.508     2.976    0.19E-03    0.33E-03    0.16E-06
   2      7    11.508     1.494    0.14E-03    0.29E-03    0.14E-06
  PAW_PBE Li_sv_GW 25Mar2010            :
  PAW_PBE P_GW 19Mar2012                :
  PAW_PBE S_GW 19Mar2012                :
  PAW_PBE Cl_GW 19Mar2012               :

 POSCAR: Li24 P4 S20 Cl4
  positions in direct lattice
  velocities in cartesian coordinates
 exchange correlation table for  LEXCH =        8
   RHO(1)=    0.500       N(1)  =     2000
   RHO(2)=  100.500       N(2)  =     4000

 VTST: version 4.1, (05/19/21)

 CHAIN: initializing optimizer

 OPT: Using VASP Conjugate-Gradient optimizer
 CHAIN: Read ICHAIN            0

 POSCAR: Li24 P4 S20 Cl4
  positions in direct lattice
  velocities in cartesian coordinates

 ion  position               nearest neighbor table
   1  0.983  0.197  0.211-
   2  0.974  0.691  0.710-
   3  0.044  0.150  0.812-
   4  0.010  0.794  0.203-
   5  0.286  0.310  0.974-
   6  0.316  0.657  0.045-
   7  0.786  0.192  0.024-
   8  0.816  0.845  0.952-
   9  0.212  0.984  0.170-
  10  0.316  0.008  0.718-
  11  0.679  0.961  0.662-
  12  0.676  0.052  0.326-
  13  0.281  0.811  0.480-
  14  0.330  0.192  0.513-
  15  0.781  0.691  0.518-
  16  0.830  0.310  0.484-
  17  0.176  0.450  0.672-
  18  0.179  0.540  0.336-
  19  0.815  0.494  0.279-
  20  0.712  0.517  0.827-
  21  0.483  0.305  0.787-
  22  0.474  0.811  0.288-
  23  0.543  0.351  0.185-
  24  0.510  0.707  0.794-
  25  0.497  0.503  0.491-  44 2.05  42 2.05  43 2.06  41 2.06
  26  0.504  0.005  0.004-  38 2.05  39 2.05  37 2.05  40 2.06
  27  0.004  0.496  0.994-  35 2.05  34 2.05  36 2.05  33 2.06
  28  0.997  0.999  0.506-  32 2.05  30 2.05  31 2.06  29 2.06
  29  0.113  0.880  0.641-  28 2.06
  30  0.129  0.113  0.385-  28 2.05
  31  0.866  0.884  0.384-  28 2.06
  32  0.874  0.120  0.628-  28 2.05
  33  0.866  0.630  0.088-  27 2.06
  34  0.897  0.360  0.871-  27 2.05
  35  0.138  0.606  0.871-  27 2.05
  36  0.120  0.392  0.138-  27 2.05
  37  0.620  0.110  0.860-  26 2.05
  38  0.638  0.896  0.127-  26 2.05
  39  0.397  0.142  0.127-  26 2.05
  40  0.366  0.872  0.910-  26 2.06
  41  0.613  0.622  0.357-  25 2.06
  42  0.629  0.388  0.612-  25 2.05
  43  0.366  0.618  0.614-  25 2.06
  44  0.374  0.382  0.369-  25 2.05
  45  0.742  0.744  0.746-
  46  0.759  0.265  0.254-
  47  0.242  0.758  0.251-
  48  0.259  0.237  0.744-
  49  0.994  0.016  0.028-
  50  0.981  0.520  0.497-
  51  0.481  0.982  0.501-
  52  0.495  0.485  0.970-

  LATTYP: Found a simple cubic cell.
 ALAT       =     9.6541060979

  Lattice vectors:

 A1 = (   9.6541060979,   0.0000000000,   0.0000000000)
 A2 = (   0.0000000000,   9.6541060979,   0.0000000000)
 A3 = (   0.0000000000,   0.0000000000,   9.6541060979)

Analysis of symmetry for initial positions (statically):
 Subroutine PRICEL returns:
 Original cell was already a primitive cell.

 Routine SETGRP: Setting up the symmetry group for a
 simple cubic supercell.

 Subroutine GETGRP returns: Found  1 space group operations
 (whereof  1 operations were pure point group operations)
 out of a pool of 48 trial point group operations.

The static configuration has the point symmetry C_1 .

Analysis of symmetry for dynamics (positions and initial velocities):
 Subroutine PRICEL returns:
 Original cell was already a primitive cell.

[...]

The dynamic configuration has the point symmetry C_1 .

Analysis of structural, dynamic, and magnetic symmetry:
 Subroutine PRICEL returns:
 Original cell was already a primitive cell.

 Routine SETGRP: Setting up the symmetry group for a
 simple cubic supercell.

 Subroutine GETGRP returns: Found  1 space group operations
 (whereof  1 operations were pure point group operations)
 out of a pool of 48 trial point group operations.

The overall configuration has the point symmetry C_1 .

 Subroutine INISYM returns: Found  1 space group operations
 (whereof  1 operations are pure point group operations),
 and found     1 'primitive' translations

                                     Primitive cell

  volume of cell :     899.7797

  direct lattice vectors                    reciprocal lattice vectors
     9.654106098  0.000000000  0.000000000     0.103582868  0.000000000  0.000000000
     0.000000000  9.654106098  0.000000000     0.000000000  0.103582868  0.000000000
     0.000000000  0.000000000  9.654106098     0.000000000  0.000000000  0.103582868

  length of vectors
     9.654106098  9.654106098  9.654106098     0.103582868  0.103582868  0.103582868

  position of ions in fractional coordinates (direct lattice)
     0.983232441  0.196806303  0.211086379
     0.973915851  0.690675295  0.709946882
     0.043518682  0.150227276  0.812307794
     0.010255239  0.794466845  0.203330988
     0.285971595  0.310020639  0.973719225
     0.315894111  0.657107189  0.045324692
     0.785924958  0.191831699  0.023868682
     0.815793906  0.844612151  0.952488006
     0.212297216  0.984337277  0.169872061
     0.315591820  0.007970701  0.718207072
     0.679240248  0.961441592  0.662001809
     0.675984606  0.052004310  0.325989732
     0.280582559  0.810695708  0.480277430
     0.329629414  0.191540715  0.513386269
     0.780595179  0.690788967  0.517577198
     0.829820476  0.310176788  0.484167939
     0.175807529  0.449720298  0.671771251
     0.179159845  0.540268531  0.335709737
     0.815280187  0.493833530  0.279443524
     0.712329172  0.517249378  0.827474397
     0.483286699  0.304906371  0.786500552
     0.473847197  0.811312716  0.288014502
     0.543404349  0.351382449  0.185284505
     0.510251639  0.707213558  0.794461005
     0.497371598  0.502974064  0.491450728
     0.503931965  0.005220145  0.003573119
     0.003944000  0.496459631  0.994224477
     0.997419440  0.998637337  0.506197698
     0.112768636  0.879969385  0.640766667
     0.128957928  0.113428412  0.385189761
     0.866400678  0.883610523  0.383937152
     0.873589681  0.120077145  0.628395716
     0.866176700  0.629751504  0.087791424
     0.897329325  0.360121521  0.871126360
     0.137677870  0.606171752  0.871327872
     0.120233510  0.391642566  0.138204300
     0.620200933  0.110002279  0.859524089
     0.637629512  0.895546290  0.126504913
     0.397247642  0.141600723  0.126545738
     0.366140333  0.871955038  0.909968294
     0.612671429  0.621873880  0.357005191
     0.629013136  0.388154175  0.612318196
     0.366418848  0.617921548  0.613863521
     0.373550440  0.381643164  0.369193411
     0.742196940  0.743951473  0.746447909
     0.759318513  0.264568150  0.253587585
     0.242203983  0.757766507  0.251332651
     0.259359647  0.237191695  0.744022142
     0.994442269  0.016279252  0.027996741
     0.980721511  0.519575706  0.496939826
     0.480616727  0.982111760  0.500871881
     0.494524350  0.485366605  0.969633812

  ion indices of the primitive-cell ions
   primitive index   ion index
                 1           1
                 2           2
                 3           3
                 4           4
                 5           5
                 6           6
                 7           7
                 8           8
[...]
      5     -42.4529      1.00000
      6     -42.4525      1.00000
      7     -42.4158      1.00000
      8     -42.4151      1.00000
      9     -42.3997      1.00000
     10     -42.3995      1.00000
     11     -42.3885      1.00000
     12     -42.3883      1.00000
     13     -42.3824      1.00000
     14     -42.3815      1.00000
     15     -42.3756      1.00000
     16     -42.3750      1.00000
     17     -42.3537      1.00000
     18     -42.3531      1.00000
     19     -42.2890      1.00000
     20     -42.2884      1.00000
     21     -42.2223      1.00000
     22     -42.2217      1.00000
     23     -42.1621      1.00000
     24     -42.1619      1.00000
     25     -13.0189      1.00000
     26     -12.9901      1.00000
     27     -12.9423      1.00000
     28     -12.9287      1.00000
     29     -12.6180      1.00000
     30     -12.6126      1.00000
     31     -12.5910      1.00000
     32     -12.5850      1.00000
     33     -10.2562      1.00000
     34     -10.2322      1.00000
     35     -10.2039      1.00000
     36     -10.0902      1.00000
     37     -10.0240      1.00000
     38     -10.0113      1.00000
     39      -9.9834      1.00000
     40      -9.9525      1.00000
     41      -9.9465      1.00000
     42      -9.9207      1.00000
     43      -9.8440      1.00000
     44      -9.8202      1.00000
     45      -8.3257      1.00000
     46      -8.3245      1.00000
     47      -8.2815      1.00000
     48      -8.2790      1.00000
     49      -6.0995      1.00000
     50      -5.6801      1.00000
     51      -5.6211      1.00000
     52      -5.5994      1.00000
     53      -3.2056      1.00000
     54      -3.1823      1.00000
     55      -3.1344      1.00000
     56      -2.8395      1.00000
     57      -2.6995      1.00000
     58      -2.6361      1.00000
     59      -2.5154      1.00000
     60      -2.4541      1.00000
[...]
    162       9.1466      0.00000
    163       9.1873      0.00000
    164       9.2210      0.00000
    165       9.3216      0.00000
    166       9.3936      0.00000
    167       9.4222      0.00000
    168       9.4779      0.00000
    169       9.5487      0.00000
    170       9.5673      0.00000
    171       9.6691      0.00000
    172       9.6867      0.00000
    173       9.7730      0.00000
    174       9.8262      0.00000
    175       9.9043      0.00000
    176      10.0331      0.00000

[...]

 soft charge-density along one line, spin component           2
         0         1         2         3         4         5         6         7         8         9
 total charge-density along one line

------------------------ aborting loop because EDIFF is reached ----------------------------------------

         DFTD3 V3.0 Rev 1
 Edisp (eV)  -13.59845

 E6    (eV) :    -8.3807
 E8    (eV) :    -5.2178
 % E8        : 38.37

  FORCE on cell =-STRESS in cart. coord.  units (eV):
  Direction    XX          YY          ZZ          XY          YZ          ZX
  Alpha Z   301.69329   301.69329   301.69329
  Ewald   -2885.29365 -3019.67497 -2931.22578     0.07345   -28.21969    -0.07760
  Hartree   756.92524   703.24140   735.29205     0.03615   -12.22964    -0.06138
  E(xc)    -947.65686  -948.00205  -947.73798     0.00012    -0.02692     0.00002
  Local   -1573.07601 -1402.30279 -1510.25730    -0.11108    38.78758     0.15023
  n-local  1481.11909  1482.57088  1481.11972     0.00410    -0.68946    -0.00999
  augment  -356.38696  -357.55440  -356.66913    -0.00092     0.08146     0.00122
  Kinetic  3236.79473  3254.62312  3242.28814     0.00714     0.30800    -0.01759
  Fock        0.00000     0.00000     0.00000     0.00000     0.00000     0.00000
  vdW       -14.43471   -14.39726   -14.41161     0.00001    -0.00054    -0.00004
  Total      -0.31583     0.19722     0.09140     0.00896    -1.98922    -0.01514
  in kB      -0.56238     0.35118     0.16274     0.01595    -3.54207    -0.02695

 VOLUME and BASIS-vectors are now :
  energy-cutoff  :      520.00
  volume of cell :      899.78
      direct lattice vectors                 reciprocal lattice vectors
     9.654106098  0.000000000  0.000000000     0.103582868  0.000000000  0.000000000
     0.000000000  9.654106098  0.000000000     0.000000000  0.103582868  0.000000000
     0.000000000  0.000000000  9.654106098     0.000000000  0.000000000  0.103582868

  length of vectors
     9.654106098  9.654106098  9.654106098     0.103582868  0.103582868  0.103582868

 FORCES acting on ions
    electron-ion (+dipol)            ewald-force                    non-local-force                 convergence-correction
   -.533E+01 -.657E+00 -.173E+01   0.448E+01 0.157E+01 0.279E+01   0.851E+00 -.919E+00 -.107E+01   -.624E-04 0.127E-04 -.147E-03
   -.317E+01 0.101E+01 -.239E+01   0.266E+01 0.179E+00 0.338E+01   0.507E+00 -.120E+01 -.989E+00   -.305E-04 0.898E-04 0.879E-05
   -.231E+01 0.982E+01 -.608E+01   0.308E+01 -.866E+01 0.492E+01   -.773E+00 -.116E+01 0.116E+01   -.731E-04 0.520E-04 0.189E-04
   0.236E+01 0.193E+01 0.695E+01   -.161E+01 -.283E+01 -.597E+01   -.745E+00 0.895E+00 -.985E+00   -.376E-04 -.266E-03 0.751E-04
   0.352E+01 0.380E+00 -.415E+01   -.408E+01 -.146E+01 0.356E+01   0.566E+00 0.108E+01 0.587E+00   0.119E-04 0.216E-04 0.317E-04
   -.113E+02 0.520E+01 -.576E+01   0.101E+02 -.385E+01 0.661E+01   0.120E+01 -.135E+01 -.851E+00   -.324E-04 -.297E-04 0.140E-03
   0.351E+01 -.367E+00 0.416E+01   -.407E+01 0.144E+01 -.357E+01   0.566E+00 -.108E+01 -.585E+00   0.875E-05 -.191E-05 -.733E-04
   -.112E+02 -.516E+01 0.575E+01   0.100E+02 0.381E+01 -.660E+01   0.119E+01 0.135E+01 0.850E+00   -.267E-04 0.104E-04 -.192E-03
   0.166E+01 -.351E+01 0.914E+01   -.716E+00 0.260E+01 -.802E+01   -.944E+00 0.911E+00 -.112E+01   0.138E-03 0.740E-04 -.182E-03
   -.470E+01 0.633E+01 -.122E-01   0.342E+01 -.520E+01 0.147E+01   0.128E+01 -.112E+01 -.146E+01   -.435E-04 -.623E-04 0.132E-05
   0.657E+01 -.311E+01 0.722E+01   -.558E+01 0.230E+01 -.594E+01   -.978E+00 0.815E+00 -.128E+01   0.405E-04 -.320E-04 0.424E-04
   0.121E+02 -.547E+01 -.146E+02   -.106E+02 0.655E+01 0.131E+02   -.151E+01 -.108E+01 0.152E+01   -.342E-04 0.692E-04 -.228E-04
   -.107E+01 0.667E+00 -.189E+01   -.256E-01 -.169E+01 0.119E+01   0.109E+01 0.103E+01 0.699E+00   -.286E-04 -.248E-04 0.136E-03
   -.852E+01 -.132E+01 0.575E+01   0.743E+01 0.245E+01 -.537E+01   0.109E+01 -.114E+01 -.381E+00   0.663E-04 0.689E-04 0.636E-04
   -.110E+01 -.635E+00 0.188E+01   0.310E-02 0.166E+01 -.117E+01   0.109E+01 -.103E+01 -.700E+00   0.441E-05 -.583E-05 -.256E-04
   -.854E+01 0.130E+01 -.573E+01   0.745E+01 -.244E+01 0.534E+01   0.109E+01 0.114E+01 0.379E+00   0.935E-05 -.534E-04 0.104E-03
   0.121E+02 0.547E+01 0.146E+02   -.106E+02 -.654E+01 -.131E+02   -.151E+01 0.108E+01 -.151E+01   -.138E-04 -.909E-04 0.356E-05
   0.658E+01 0.311E+01 -.720E+01   -.560E+01 -.229E+01 0.592E+01   -.978E+00 -.815E+00 0.128E+01   0.493E-04 0.537E-04 -.886E-05
   -.471E+01 -.632E+01 -.254E-01   0.344E+01 0.519E+01 -.144E+01   0.128E+01 0.112E+01 0.147E+01   -.192E-04 0.304E-04 -.743E-04
   0.162E+01 0.352E+01 -.915E+01   -.671E+00 -.261E+01 0.803E+01   -.946E+00 -.913E+00 0.112E+01   0.120E-03 -.114E-03 0.798E-04
   -.537E+01 0.680E+00 0.173E+01   0.451E+01 -.160E+01 -.279E+01   0.855E+00 0.919E+00 0.107E+01   -.361E-04 0.678E-05 0.772E-04
   -.319E+01 -.103E+01 0.240E+01   0.268E+01 -.163E+00 -.340E+01   0.509E+00 0.120E+01 0.990E+00   -.412E-04 -.250E-04 -.342E-05
   -.236E+01 -.984E+01 0.603E+01   0.313E+01 0.868E+01 -.487E+01   -.772E+00 0.116E+01 -.116E+01   -.665E-04 -.991E-04 -.379E-04
   0.235E+01 -.195E+01 -.695E+01   -.160E+01 0.284E+01 0.597E+01   -.746E+00 -.893E+00 0.984E+00   -.107E-04 0.167E-03 -.676E-04
   -.838E+00 0.215E+01 0.331E+00   0.590E+00 -.239E+01 -.494E+00   0.244E+00 0.236E+00 0.156E+00   0.996E-05 0.646E-04 0.426E-04
   0.398E+01 0.470E+01 0.330E+01   -.386E+01 -.459E+01 -.299E+01   -.117E+00 -.116E+00 -.311E+00   -.170E-04 0.551E-04 -.452E-04
   0.407E+01 -.468E+01 -.332E+01   -.395E+01 0.457E+01 0.301E+01   -.120E+00 0.112E+00 0.312E+00   0.552E-04 -.784E-04 -.105E-03
   -.822E+00 -.211E+01 -.316E+00   0.576E+00 0.235E+01 0.476E+00   0.243E+00 -.243E+00 -.154E+00   -.359E-04 -.356E-04 0.596E-04
   -.215E+02 0.346E+02 -.629E+02   0.236E+02 -.375E+02 0.669E+02   -.211E+01 0.294E+01 -.405E+01   0.690E-04 -.104E-03 0.889E-04
   -.427E+02 -.505E+02 0.249E+02   0.463E+02 0.540E+02 -.275E+02   -.365E+01 -.352E+01 0.261E+01   -.190E-03 -.169E-03 0.304E-03
   0.406E+02 0.337E+02 0.386E+02   -.442E+02 -.362E+02 -.418E+02   0.359E+01 0.248E+01 0.326E+01   0.105E-03 0.344E-04 0.258E-03
   0.393E+02 -.427E+02 -.416E+02   -.421E+02 0.453E+02 0.448E+02   0.276E+01 -.268E+01 -.318E+01   0.929E-04 0.766E-04 0.113E-03
   0.574E+02 -.397E+02 -.200E+02   -.620E+02 0.423E+02 0.218E+02   0.460E+01 -.260E+01 -.176E+01   0.107E-04 -.106E-03 -.576E-05
   0.309E+02 0.390E+02 0.517E+02   -.330E+02 -.419E+02 -.556E+02   0.212E+01 0.295E+01 0.398E+01   0.509E-04 -.118E-03 0.178E-04
   -.428E+02 -.527E+02 0.295E+02   0.462E+02 0.554E+02 -.320E+02   -.338E+01 -.268E+01 0.247E+01   -.218E-03 -.209E-03 0.756E-04
   -.386E+02 0.289E+02 -.517E+02   0.418E+02 -.312E+02 0.552E+02   -.316E+01 0.235E+01 -.350E+01   0.504E-04 0.405E-04 -.271E-03
   -.386E+02 -.289E+02 0.517E+02   0.418E+02 0.312E+02 -.552E+02   -.316E+01 -.235E+01 0.350E+01   0.452E-04 0.298E-04 0.162E-03
   -.428E+02 0.527E+02 -.295E+02   0.462E+02 -.554E+02 0.320E+02   -.338E+01 0.268E+01 -.247E+01   -.705E-04 0.112E-03 -.786E-04
   0.309E+02 -.390E+02 -.516E+02   -.330E+02 0.419E+02 0.556E+02   0.213E+01 -.295E+01 -.398E+01   0.126E-03 0.162E-03 -.166E-03
   0.573E+02 0.397E+02 0.201E+02   -.619E+02 -.423E+02 -.219E+02   0.460E+01 0.259E+01 0.176E+01   0.828E-04 0.220E-03 -.231E-04
   -.215E+02 -.347E+02 0.628E+02   0.236E+02 0.376E+02 -.669E+02   -.210E+01 -.295E+01 0.405E+01   -.106E-03 -.615E-04 0.207E-03
   -.427E+02 0.506E+02 -.249E+02   0.464E+02 -.541E+02 0.275E+02   -.365E+01 0.353E+01 -.260E+01   -.146E-04 0.714E-04 -.420E-04
   0.405E+02 -.337E+02 -.387E+02   -.441E+02 0.361E+02 0.419E+02   0.359E+01 -.247E+01 -.326E+01   0.548E-05 0.141E-04 -.148E-03
   0.393E+02 0.426E+02 0.416E+02   -.421E+02 -.453E+02 -.448E+02   0.276E+01 0.267E+01 0.319E+01   0.298E-04 -.884E-04 -.121E-03
   0.187E+01 -.109E+02 -.977E+01   -.190E+01 0.111E+02 0.998E+01   0.352E-01 -.191E+00 -.197E+00   0.187E-03 0.174E-03 0.134E-03
   0.176E+02 0.118E+01 -.545E+01   -.180E+02 -.132E+01 0.552E+01   0.451E+00 0.151E+00 -.663E-01   -.213E-03 -.689E-04 -.118E-03
   0.185E+01 0.109E+02 0.975E+01   -.188E+01 -.111E+02 -.996E+01   0.342E-01 0.189E+00 0.197E+00   0.112E-03 -.237E-03 0.913E-05
   0.176E+02 -.117E+01 0.544E+01   -.180E+02 0.132E+01 -.551E+01   0.450E+00 -.152E+00 0.673E-01   -.118E-03 0.832E-04 0.441E-04
   -.169E+02 0.235E+02 0.295E+02   0.172E+02 -.238E+02 -.300E+02   -.316E+00 0.315E+00 0.518E+00   -.181E-03 0.561E-03 -.488E-03
   -.203E+02 0.150E+02 -.334E+01   0.205E+02 -.151E+02 0.343E+01   -.269E+00 0.112E+00 -.938E-01   0.915E-04 0.181E-04 0.193E-03
   -.204E+02 -.151E+02 0.340E+01   0.207E+02 0.152E+02 -.349E+01   -.268E+00 -.116E+00 0.932E-01   0.613E-06 -.283E-04 0.597E-04
   -.170E+02 -.236E+02 -.295E+02   0.173E+02 0.239E+02 0.300E+02   -.320E+00 -.316E+00 -.517E+00   -.843E-04 -.550E-03 0.173E-03
   -.486E+01 0.214E-01 -.989E-02   -.675E-13 -.142E-13 -.320E-13   0.488E+01 -.337E-01 0.160E-01   -.232E-03 -.287E-03 0.276E-03

 POSITION                                       TOTAL-FORCE (eV/Angst)
      9.49224      1.89999      2.03784         0.000071     -0.000008      0.000023
      9.40227      6.66781      6.85385        -0.000075     -0.000122     -0.000102
      0.42015      1.45021      7.84208         0.000085     -0.000329     -0.000071
      0.09899      7.67001      1.96276        -0.000028      0.000433     -0.000712
      2.76078      2.99293      9.40042        -0.000048     -0.000065      0.000063
      3.04961      6.34378      0.43761        -0.000130      0.000039      0.000066
      7.58738      1.85197      0.23042        -0.000058      0.000011      0.000003
      7.87573      8.15397      9.19536        -0.000067     -0.000014     -0.000174
      2.04958      9.50298      1.64011         0.000144      0.000298      0.000486
      3.04682      0.07693      6.93363         0.000195      0.000007     -0.000013
      6.55739      9.28182      6.39102        -0.000232     -0.000150     -0.000080
      6.52603      0.50206      3.14711         0.000047      0.000021     -0.000071
      2.70877      7.82653      4.63668         0.000016     -0.000001      0.000001
      3.18231      1.84917      4.95631         0.000076      0.000058      0.000040
      7.53592      6.66899      4.99669        -0.000070      0.000097     -0.000214
      8.01118      2.99444      4.67421         0.000049     -0.000087     -0.000045
      1.69729      4.34165      6.48536         0.000078      0.000003      0.000034
      1.72958      5.21586      3.24100        -0.000180      0.000200      0.000062
      7.87092      4.76753      2.69783         0.000433      0.000027      0.000121
      6.87693      4.99352      7.98844         0.000095     -0.000163     -0.000293
      4.66570      2.94361      7.59299        -0.000023      0.000050      0.000045
      4.57457      7.83249      2.78053        -0.000010     -0.000026     -0.000021
      5.24613      3.39242      1.78880         0.000173      0.000506      0.000118
      4.92601      6.82741      7.66996        -0.000037     -0.000281      0.000482
      4.80170      4.85580      4.74452        -0.000024     -0.000134     -0.000094
      4.86501      0.05035      0.03446         0.000034      0.000167      0.000152
      0.03813      4.79291      9.59834        -0.000172      0.000002     -0.000060
      9.62916      9.64103      4.88682         0.000223     -0.000509      0.000211
      1.08872      8.49527      6.18613        -0.000016      0.000074     -0.000024
      1.24496      1.09512      3.71874        -0.000503     -0.000089      0.000341
      8.36434      8.53045      3.70650         0.000312      0.000299      0.000052
      8.43367      1.15918      6.06663        -0.000064     -0.000093     -0.000150
      8.36208      6.07971      0.84752         0.000172     -0.000196     -0.000177
      8.66293      3.47657      8.40990         0.000117      0.000007     -0.000034
      1.32915      5.85207      8.41187        -0.000347     -0.000259      0.000341
      1.16076      3.78098      1.33429        -0.000182      0.000269     -0.000270
      5.98750      1.06197      8.29789        -0.000224     -0.000236      0.000172
      6.15577      8.64566      1.22130        -0.000180      0.000093     -0.000242
      3.83512      1.36711      1.22176         0.000115     -0.000117     -0.000065
      3.53471      8.41793      8.78496         0.000222      0.000263      0.000194
      5.91480      6.00359      3.44649        -0.000195     -0.000291      0.000187
      6.07256      3.74720      5.91136        -0.000215      0.000043     -0.000174
      3.53746      5.96550      5.92635         0.000250     -0.000071     -0.000048
      3.60621      3.68443      3.56421        -0.000044      0.000133      0.000084
      7.16521      7.18214      7.20624        -0.000087     -0.000083     -0.000131
      7.33054      2.55419      2.44816         0.000160      0.000014     -0.000022
      2.33822      7.31560      2.42642        -0.000034      0.000146      0.000012
      2.50388      2.28985      7.18289         0.000113      0.000018      0.000060
      9.60050      0.15708      0.27029         0.000011      0.000009      0.000002
      9.46799      5.01602      4.79754         0.000039     -0.000020     -0.000044
      4.63993      9.48143      4.83542         0.000029      0.000022      0.000008
      4.77421      4.68587      9.36096        -0.000016      0.000032     -0.000029
    total drift:                                0.017245     -0.012649      0.006392

  FREE ENERGIE OF THE ION-ELECTRON SYSTEM (eV)
  free  energy   TOTEN  =      -272.33449465 eV

  energy  without entropy=     -272.33449465  energy(sigma->0) =     -272.33449465

 d Force = 0.3760098E-06[ 0.262E-06, 0.490E-06]  d Energy = 0.9596878E-06-0.584E-06
 d Force = 0.1305905E-01[ 0.131E-01, 0.131E-01]  d Ewald  = 0.1305905E-01 0.382E-10

 stress matrix after NEB project (eV)
     -0.31583      0.00896     -0.01514
      0.00896      0.19722     -1.98922
     -0.01514     -1.98922      0.09140
  FORCES: max atom, RMS     0.000834    0.000311
  FORCE total and by dimension    0.002245    0.000712
  Stress total and by dimension    2.839297    1.989220

 reached required accuracy - stopping structural energy minimisation