 vasp.6.4.1 05Apr23 (build Jun 07 2023 15:38:11) complex

 executed on             LinuxIFC date 2023.10.16  22:18:03

 INCAR:
   GGA = PE
   PREC = Accu
   EDIFF = 1.e-6
   EDIFFG = -1.e-3
   ENCUT = 520.
   NELM = 100
   NELMDL = -10
   LASPH = .TRUE.
   LREAL = Auto
   LMAXMIX = 4
   ISPIN = 2
   LDIAG = .TRUE.
   LPLANE = .TRUE.
   IVDW = 12
   SIGMA = 0.03
   ISMEAR = 0
   NSW = 1000    number of steps for IOM
   IBRION = 2    ionic relax: 0-MD 1-quasi-New 2-CG
   ISIF = 2    ionic relaxation + stress tensor calcn.
   LCHARG = .FALSE.
   LWAVE = .FALSE.
   ALGO = F
   KPAR = 1
   NPAR = 4
   POTIM = 0.2

 POTCAR:    PAW_PBE Li_sv_GW 25Mar2010
 POTCAR:    PAW_PBE P_GW 19Mar2012
 POTCAR:    PAW_PBE S_GW 19Mar2012
 POTCAR:    PAW_PBE Cl_GW 19Mar2012
|           W    W    AA    RRRRR   N    N  II  N    N   GGGG   !!!           |
|           W    W   A  A   R    R  NN   N  II  NN   N  G    G  !!!           |
|           W    W  A    A  R    R  N N  N  II  N N  N  G       !!!           |
|           W WW W  AAAAAA  RRRRR   N  N N  II  N  N N  G  GGG   !            |
|           WW  WW  A    A  R   R   N   NN  II  N   NN  G    G                |
|           W    W  A    A  R    R  N    N  II  N    N   GGGG   !!!           |
|     You use a magnetic or noncollinear calculation, but did not specify     |
|     the initial magnetic moment with the MAGMOM tag. Note that a            |
|     default of 1 will be used for all atoms. This ferromagnetic setup       |
|     may break the symmetry of the crystal, in particular it may rule        |
|     out finding an antiferromagnetic solution. Thence, we recommend         |
|     setting the initial magnetic moment manually or verifying carefully     |
|     that this magnetic setup is desired.                                    |

   TITEL  = PAW_PBE Li_sv_GW 25Mar2010
   POMASS =    7.010; ZVAL   =    3.000    mass and valenz
   ENMAX  =  433.699; ENMIN  =  325.274 eV

   TITEL  = PAW_PBE P_GW 19Mar2012
   POMASS =   30.974; ZVAL   =    5.000    mass and valenz
   ENMAX  =  255.040; ENMIN  =  191.280 eV

[...]

   TITEL  = PAW_PBE Cl_GW 19Mar2012
   POMASS =   35.453; ZVAL   =    7.000    mass and valenz
   ENMAX  =  262.472; ENMIN  =  196.854 eV

 Optimization of the real space projectors (new method)

 maximal supplied QI-value         = 25.13
 optimisation between [QCUT,QGAM] = [ 11.56, 23.12] = [ 37.43,149.72] Ry
 Optimized for a Real-space Cutoff    1.28 Angstroem

   l    n(q)    QCUT    max X(q) W(low)/X(q) W(high)/X(q)  e(spline)
   0      9    11.561    87.733    0.11E-03    0.32E-04    0.56E-06
   0      9    11.561    82.800    0.11E-03    0.35E-04    0.56E-06
   0      9    11.561     2.509    0.22E-03    0.42E-04    0.79E-06
   1      8    11.561    12.580    0.94E-04    0.26E-03    0.21E-06
   1      8    11.561     1.319    0.33E-04    0.15E-03    0.19E-06
   2      8    11.561     1.993    0.36E-04    0.89E-04    0.26E-06
 Optimization of the real space projectors (new method)

[...]

   l    n(q)    QCUT    max X(q) W(low)/X(q) W(high)/X(q)  e(spline)
   0     10    11.508     7.541    0.34E-04    0.13E-04    0.69E-07
   0     10    11.508     1.809    0.49E-04    0.27E-04    0.14E-06
   1     10    11.508     4.107    0.27E-05    0.41E-05    0.14E-06
   1     10    11.508     2.196    0.26E-05    0.25E-05    0.22E-06
   2      9    11.508     4.265    0.18E-03    0.11E-03    0.81E-06
   2      9    11.508     1.925    0.97E-04    0.76E-04    0.47E-06
 Optimization of the real space projectors (new method)

 maximal supplied QI-value         = 19.84
 optimisation between [QCUT,QGAM] = [ 11.51, 23.22] = [ 37.09,150.92] Ry
 Optimized for a Real-space Cutoff    1.21 Angstroem

   l    n(q)    QCUT    max X(q) W(low)/X(q) W(high)/X(q)  e(spline)
   0      8    11.508     6.761    0.57E-04    0.57E-04    0.35E-07
   0      8    11.508     1.642    0.14E-03    0.14E-03    0.91E-07
   1      8    11.508     3.519    0.20E-04    0.72E-04    0.47E-07
   1      8    11.508     2.150    0.27E-04    0.11E-03    0.89E-07
   2      7    11.508     2.976    0.19E-03    0.33E-03    0.16E-06
   2      7    11.508     1.494    0.14E-03    0.29E-03    0.14E-06
  PAW_PBE Li_sv_GW 25Mar2010            :
  PAW_PBE P_GW 19Mar2012                :
  PAW_PBE S_GW 19Mar2012                :
  PAW_PBE Cl_GW 19Mar2012               :

 POSCAR: Li24 P4 S20 Cl4
  positions in direct lattice
  velocities in cartesian coordinates
 exchange correlation table for  LEXCH =        8
   RHO(1)=    0.500       N(1)  =     2000
   RHO(2)=  100.500       N(2)  =     4000

 VTST: version 4.1, (05/19/21)

 CHAIN: initializing optimizer

 OPT: Using VASP Conjugate-Gradient optimizer
 CHAIN: Read ICHAIN            0

 POSCAR: Li24 P4 S20 Cl4
  positions in direct lattice
  velocities in cartesian coordinates

 ion  position               nearest neighbor table
   1  0.992  0.238  0.262-
   2  0.965  0.754  0.746-
   3  0.016  0.290  0.703-
   4  0.016  0.797  0.210-
   5  0.188  0.183  0.964-
   6  0.208  0.798  0.006-
   7  0.824  0.154  0.041-
   8  0.740  0.721  0.991-
   9  0.227  0.986  0.210-
  10  0.322  0.046  0.678-
  11  0.686  0.972  0.720-
  12  0.695  0.009  0.304-
  13  0.322  0.822  0.454-
  14  0.227  0.290  0.514-
  15  0.686  0.780  0.528-
  16  0.695  0.196  0.491-
  17  0.208  0.494  0.701-
  18  0.188  0.536  0.317-
  19  0.824  0.459  0.346-
  20  0.740  0.509  0.779-
  21  0.467  0.323  0.830-
  22  0.467  0.670  0.177-
  23  0.555  0.329  0.170-
  24  0.505  0.690  0.810-
  25  0.503  0.499  0.492-  44 2.04  41 2.05  43 2.06  42 2.06
  26  0.503  0.008  0.001-  39 2.04  37 2.05  40 2.06  38 2.06
  27  0.007  0.488  0.012-  36 2.04  34 2.05  33 2.05  35 2.06
  28  0.005  0.987  0.513-  29 2.05  32 2.05  31 2.05  30 2.06
  29  0.139  0.872  0.628-  28 2.05
  30  0.136  0.105  0.395-  28 2.06
  31  0.881  0.864  0.396-  28 2.05
  32  0.881  0.104  0.636-  28 2.05
  33  0.886  0.601  0.143-  27 2.05
  34  0.886  0.357  0.899-  27 2.05
  35  0.110  0.618  0.882-  27 2.06
  36  0.142  0.375  0.125-  27 2.04
  37  0.630  0.133  0.889-  26 2.05
  38  0.613  0.875  0.123-  26 2.06
  39  0.388  0.139  0.118-  26 2.04
  40  0.382  0.897  0.868-  26 2.06
  41  0.630  0.611  0.367-  25 2.05
  42  0.613  0.377  0.625-  25 2.06
  43  0.382  0.631  0.603-  25 2.06
  44  0.388  0.382  0.361-  25 2.04
  45  0.734  0.742  0.758-
  46  0.759  0.237  0.263-
  47  0.251  0.754  0.237-
  48  0.251  0.263  0.746-
  49  0.032  0.995  0.041-
  50  0.032  0.459  0.505-
  51  0.533  0.987  0.513-
  52  0.527  0.514  0.986-

  LATTYP: Found a simple cubic cell.
 ALAT       =     9.7381645721

  Lattice vectors:

 A1 = (   9.7381645721,   0.0000000000,   0.0000000000)
 A2 = (   0.0000000000,   9.7381645721,   0.0000000000)
 A3 = (   0.0000000000,   0.0000000000,   9.7381645721)

Analysis of symmetry for initial positions (statically):
 Subroutine PRICEL returns:
 Original cell was already a primitive cell.

 Routine SETGRP: Setting up the symmetry group for a
 simple cubic supercell.

 Subroutine GETGRP returns: Found  2 space group operations
 (whereof  1 operations were pure point group operations)
 out of a pool of 48 trial point group operations.

The static configuration has the point symmetry C_1 .
 The point group associated with its full space group is C_1h.

Analysis of symmetry for dynamics (positions and initial velocities):
 Subroutine PRICEL returns:
 Original cell was already a primitive cell.

[...]

The dynamic configuration has the point symmetry C_1 .
 The point group associated with its full space group is C_1h.

Analysis of structural, dynamic, and magnetic symmetry:
 Subroutine PRICEL returns:
 Original cell was already a primitive cell.

 Routine SETGRP: Setting up the symmetry group for a
 simple cubic supercell.

 Subroutine GETGRP returns: Found  2 space group operations
 (whereof  1 operations were pure point group operations)
 out of a pool of 48 trial point group operations.

The overall configuration has the point symmetry C_1 .
 The point group associated with its full space group is C_1h.

 Subroutine INISYM returns: Found  2 space group operations
 (whereof  1 operations are pure point group operations),
 and found     1 'primitive' translations

                                     Primitive cell

  volume of cell :     923.4882

  direct lattice vectors                    reciprocal lattice vectors
     9.738164572  0.000000000  0.000000000     0.102688755  0.000000000  0.000000000
     0.000000000  9.738164572  0.000000000     0.000000000  0.102688755  0.000000000
     0.000000000  0.000000000  9.738164572     0.000000000  0.000000000  0.102688755

  length of vectors
     9.738164572  9.738164572  9.738164572     0.102688755  0.102688755  0.102688755

  position of ions in fractional coordinates (direct lattice)
     0.992110858  0.237796001  0.262069593
     0.965070874  0.753917079  0.745948515
     0.016472197  0.290348364  0.702812801
     0.016472197  0.797052793  0.209517230
     0.188116969  0.182672499  0.963640492
     0.208420215  0.798391377  0.006196997
     0.824032277  0.154015569  0.041276442
     0.739852877  0.720773141  0.990974799
     0.226845376  0.986353497  0.209647570
     0.322236035  0.045696576  0.677911471
     0.686305803  0.971980680  0.720205135
     0.695469158  0.008859991  0.304068846
     0.322236035  0.821954123  0.454169018
     0.226845376  0.290218024  0.513512097
     0.686305803  0.779660458  0.527884913
     0.695469158  0.195796748  0.491005603
     0.208420215  0.493668597  0.701474217
     0.188116969  0.536225102  0.317193095
     0.824032277  0.458589152  0.345850025
     0.739852877  0.508890795  0.779092453
     0.466668523  0.323317553  0.829859701
     0.466668523  0.670005893  0.176548040
     0.554679577  0.329400848  0.170464746
     0.504617168  0.690169349  0.809696245
     0.503161057  0.499249735  0.491966022
     0.503161057  0.007899572  0.000615859
     0.006651707  0.487574523  0.012291071
     0.005334937  0.987259163  0.512606431
     0.138689465  0.872224168  0.627641426
     0.136197091  0.105039789  0.394825805
     0.880723433  0.864044155  0.395902318
     0.880723433  0.103963275  0.635821439
     0.886401485  0.601191744  0.143141034
     0.886401485  0.356724560  0.898673850
     0.110407248  0.618195999  0.881669595
     0.142386684  0.374964699  0.124900895
     0.630178218  0.133257298  0.888609666
     0.612635275  0.874969311  0.123248627
     0.388348567  0.138676470  0.117571060
     0.381621589  0.896548485  0.868419304
     0.630178218  0.611255928  0.366608296
     0.612635275  0.376616967  0.624896283
     0.381621589  0.631446290  0.603317108
     0.388348567  0.382294534  0.361189124
     0.734054390  0.742245952  0.757619642
     0.758548304  0.236698475  0.263167119
     0.250809767  0.753575375  0.237075380
     0.250809767  0.262790214  0.746290219
     0.031556534  0.994722717  0.041220123
     0.031556534  0.458645471  0.505142877
     0.533232661  0.987070193  0.512795401
     0.526738991  0.513941561  0.985924033

  ion indices of the primitive-cell ions
   primitive index   ion index
                 1           1
                 2           2
[...]
     17     -42.5182      1.00000
     18     -42.5006      1.00000
     19     -42.5005      1.00000
     20     -42.4440      1.00000
     21     -42.4397      1.00000
     22     -42.4397      1.00000
     23     -42.3723      1.00000
     24     -42.3721      1.00000
     25     -13.2296      1.00000
     26     -13.1976      1.00000
     27     -13.1918      1.00000
     28     -13.1740      1.00000
     29     -12.6989      1.00000
     30     -12.5622      1.00000
     31     -12.5385      1.00000
     32     -12.5359      1.00000
     33     -10.4868      1.00000
     34     -10.4416      1.00000
     35     -10.4318      1.00000
     36     -10.3211      1.00000
     37     -10.2736      1.00000
     38     -10.2338      1.00000
     39     -10.2219      1.00000
     40     -10.2054      1.00000
     41     -10.1438      1.00000
     42     -10.1108      1.00000
     43     -10.0892      1.00000
     44     -10.0817      1.00000
     45      -8.7228      1.00000
     46      -8.4829      1.00000
     47      -8.4804      1.00000
     48      -8.4560      1.00000
     49      -6.3230      1.00000
     50      -5.9142      1.00000
     51      -5.8772      1.00000
     52      -5.8689      1.00000
     53      -3.4162      1.00000
     54      -3.3815      1.00000
     55      -3.3813      1.00000
     56      -3.0183      1.00000
     57      -2.9021      1.00000
     58      -2.8995      1.00000
     59      -2.7982      1.00000
     60      -2.7266      1.00000
[...]
    162       8.9356      0.00000
    163       8.9748      0.00000
    164       9.0383      0.00000
    165       9.0387      0.00000
    166       9.0958      0.00000
    167       9.1184      0.00000
    168       9.2108      0.00000
    169       9.2652      0.00000
    170       9.2997      0.00000
    171       9.3510      0.00000
    172       9.3565      0.00000
    173       9.4303      0.00000
    174       9.5183      0.00000
    175       9.5459      0.00000
    176       9.6264      0.00000

[...]

 soft charge-density along one line, spin component           2
         0         1         2         3         4         5         6         7         8         9
 total charge-density along one line

------------------------ aborting loop because EDIFF is reached ----------------------------------------

         DFTD3 V3.0 Rev 1
 Edisp (eV)  -13.22159

 E6    (eV) :    -8.1500
 E8    (eV) :    -5.0716
 % E8        : 38.36

  FORCE on cell =-STRESS in cart. coord.  units (eV):
  Direction    XX          YY          ZZ          XY          YZ          ZX
  Alpha Z   293.94801   293.94801   293.94801
  Ewald   -2946.29965 -2857.34859 -2857.34859    27.78457   -15.33135   -27.78457
  Hartree   736.11717   790.36066   790.36066    20.17611   -13.97358   -20.17611
  E(xc)    -947.73184  -947.65092  -947.65093    -0.00590    -0.08007     0.00590
  Local   -1492.88088 -1632.94394 -1632.94395   -47.69653    30.35779    47.69653
  n-local  1480.66332  1481.58375  1481.54717    -0.50841     0.15200    -0.42991
  augment  -356.55899  -356.64026  -356.64061    -0.10294    -0.29182     0.10341
  Kinetic  3245.55841  3243.32719  3243.30772     0.09169     3.13894    -1.56005
  Fock        0.00000     0.00000     0.00000     0.00000     0.00000     0.00000
  vdW       -14.01417   -14.02275   -14.02275    -0.02089    -0.02244     0.02089
  Total      -1.19861     0.58494     0.58494     0.92075     3.94952    -0.92075
  in kB      -2.07949     1.01482     1.01482     1.59742     6.85210    -1.59742

 VOLUME and BASIS-vectors are now :
  energy-cutoff  :      520.00
  volume of cell :      923.49
      direct lattice vectors                 reciprocal lattice vectors
     9.738164572  0.000000000  0.000000000     0.102688755  0.000000000  0.000000000
     0.000000000  9.738164572  0.000000000     0.000000000  0.102688755  0.000000000
     0.000000000  0.000000000  9.738164572     0.000000000  0.000000000  0.102688755

  length of vectors
     9.738164572  9.738164572  9.738164572     0.102688755  0.102688755  0.102688755

 FORCES acting on ions
    electron-ion (+dipol)            ewald-force                    non-local-force                 convergence-correction
   0.271E+01 -.177E+01 0.177E+01   -.358E+01 0.154E+01 -.154E+01   0.871E+00 0.239E+00 -.239E+00   -.930E-04 -.389E-05 0.389E-05
   0.262E+00 -.201E+01 0.201E+01   -.964E+00 0.164E+01 -.164E+01   0.697E+00 0.370E+00 -.370E+00   0.540E-04 0.375E-04 -.375E-04
   0.149E+02 -.108E+01 -.330E+01   -.141E+02 0.320E-01 0.429E+01   -.720E+00 0.105E+01 -.988E+00   0.161E-04 -.933E-05 -.359E-04
   0.149E+02 0.330E+01 0.108E+01   -.141E+02 -.429E+01 -.320E-01   -.720E+00 0.988E+00 -.105E+01   0.161E-04 0.359E-04 0.932E-05
   0.851E+01 0.456E+01 0.106E+02   -.748E+01 -.345E+01 -.113E+02   -.103E+01 -.111E+01 0.767E+00   -.646E-04 -.757E-04 -.401E-04
   0.276E+01 0.591E+01 0.158E+02   -.190E+01 -.685E+01 -.150E+02   -.860E+00 0.946E+00 -.755E+00   0.405E-05 0.686E-05 -.468E-04
   -.690E+01 0.159E+02 0.737E+01   0.571E+01 -.146E+02 -.674E+01   0.120E+01 -.133E+01 -.626E+00   -.114E-04 0.239E-04 0.190E-04
   -.141E+02 -.743E+01 -.546E+01   0.141E+02 0.802E+01 0.472E+01   0.287E-01 -.589E+00 0.734E+00   -.133E-03 -.169E-03 -.104E-03
   -.122E+02 -.510E+01 -.793E+01   0.127E+02 0.429E+01 0.863E+01   -.510E+00 0.798E+00 -.708E+00   -.554E-04 -.979E-04 -.191E-04
   -.734E+01 -.243E+01 0.110E+02   0.610E+01 0.344E+01 -.933E+01   0.124E+01 -.101E+01 -.166E+01   -.855E-05 -.297E-04 0.443E-04
   -.612E+01 -.311E+01 -.749E+01   0.684E+01 0.265E+01 0.849E+01   -.725E+00 0.460E+00 -.101E+01   -.387E-04 -.371E-04 -.929E-05
   0.740E+01 0.330E+01 0.502E+01   -.651E+01 -.253E+01 -.617E+01   -.889E+00 -.765E+00 0.116E+01   0.286E-04 -.263E-04 0.230E-04
   -.734E+01 -.110E+02 0.243E+01   0.610E+01 0.933E+01 -.344E+01   0.124E+01 0.166E+01 0.101E+01   -.855E-05 -.443E-04 0.297E-04
   -.122E+02 0.793E+01 0.510E+01   0.127E+02 -.863E+01 -.429E+01   -.510E+00 0.708E+00 -.798E+00   -.554E-04 0.191E-04 0.979E-04
   -.612E+01 0.749E+01 0.311E+01   0.684E+01 -.849E+01 -.265E+01   -.725E+00 0.101E+01 -.460E+00   -.387E-04 0.929E-05 0.371E-04
   0.740E+01 -.502E+01 -.330E+01   -.651E+01 0.617E+01 0.253E+01   -.889E+00 -.116E+01 0.765E+00   0.286E-04 -.230E-04 0.263E-04
   0.276E+01 -.158E+02 -.591E+01   -.190E+01 0.150E+02 0.685E+01   -.860E+00 0.755E+00 -.946E+00   0.405E-05 0.468E-04 -.685E-05
   0.851E+01 -.106E+02 -.456E+01   -.748E+01 0.113E+02 0.345E+01   -.103E+01 -.767E+00 0.111E+01   -.646E-04 0.401E-04 0.757E-04
   -.690E+01 -.737E+01 -.159E+02   0.571E+01 0.674E+01 0.146E+02   0.120E+01 0.626E+00 0.133E+01   -.114E-04 -.190E-04 -.239E-04
   -.141E+02 0.546E+01 0.743E+01   0.141E+02 -.472E+01 -.802E+01   0.287E-01 -.734E+00 0.589E+00   -.133E-03 0.104E-03 0.169E-03
   0.298E+01 -.386E+01 -.758E+01   -.398E+01 0.314E+01 0.642E+01   0.100E+01 0.721E+00 0.116E+01   0.109E-03 -.958E-06 -.169E-03
   0.298E+01 0.758E+01 0.386E+01   -.398E+01 -.642E+01 -.314E+01   0.100E+01 -.116E+01 -.721E+00   0.109E-03 0.169E-03 0.953E-06
   -.586E+00 -.754E+01 0.754E+01   0.144E+01 0.629E+01 -.629E+01   -.852E+00 0.126E+01 -.126E+01   0.145E-03 -.510E-04 0.510E-04
   0.150E+02 0.455E+01 -.455E+01   -.141E+02 -.368E+01 0.368E+01   -.944E+00 -.882E+00 0.882E+00   0.197E-03 -.257E-04 0.257E-04
   -.738E+01 0.536E+01 -.402E+01   0.716E+01 -.548E+01 0.337E+01   0.226E+00 0.122E+00 0.650E+00   0.421E-04 0.372E-04 0.207E-03
   -.738E+01 0.402E+01 -.536E+01   0.716E+01 -.337E+01 0.548E+01   0.226E+00 -.650E+00 -.122E+00   0.421E-04 -.207E-03 -.372E-04
   -.115E+01 -.631E+01 0.631E+01   0.130E+01 0.576E+01 -.576E+01   -.145E+00 0.559E+00 -.559E+00   -.107E-03 0.753E-04 -.753E-04
   0.299E+01 0.853E+01 -.853E+01   -.312E+01 -.894E+01 0.894E+01   0.129E+00 0.396E+00 -.396E+00   -.459E-04 -.180E-05 0.180E-05
   -.276E+02 0.490E+02 -.490E+02   0.305E+02 -.518E+02 0.518E+02   -.291E+01 0.279E+01 -.279E+01   0.119E-04 -.179E-04 0.179E-04
   -.522E+02 -.243E+02 0.243E+02   0.562E+02 0.271E+02 -.271E+02   -.405E+01 -.286E+01 0.286E+01   -.156E-03 -.132E-03 0.132E-03
   0.259E+02 0.627E+02 0.314E+02   -.286E+02 -.668E+02 -.343E+02   0.275E+01 0.411E+01 0.289E+01   0.353E-05 0.113E-03 0.101E-03
   0.259E+02 -.314E+02 -.627E+02   -.286E+02 0.343E+02 0.668E+02   0.275E+01 -.289E+01 -.411E+01   0.353E-05 -.101E-03 -.113E-03
   0.432E+02 -.338E+02 -.433E+02   -.466E+02 0.360E+02 0.469E+02   0.340E+01 -.225E+01 -.366E+01   -.189E-03 -.142E-03 -.170E-03
   0.432E+02 0.433E+02 0.338E+02   -.466E+02 -.469E+02 -.360E+02   0.340E+01 0.366E+01 0.225E+01   -.189E-03 0.170E-03 0.142E-03
   -.363E+02 -.377E+02 0.377E+02   0.394E+02 0.411E+02 -.411E+02   -.314E+01 -.349E+01 0.349E+01   -.752E-04 0.160E-04 -.160E-04
   -.646E+02 0.199E+02 -.199E+02   0.691E+02 -.222E+02 0.222E+02   -.452E+01 0.224E+01 -.224E+01   -.262E-03 0.645E-04 -.645E-04
   -.494E+02 -.451E+02 0.348E+02   0.523E+02 0.483E+02 -.372E+02   -.296E+01 -.322E+01 0.242E+01   0.181E-04 -.485E-04 -.957E-04
   -.419E+02 0.324E+02 -.424E+02   0.445E+02 -.357E+02 0.462E+02   -.263E+01 0.327E+01 -.383E+01   -.188E-03 -.151E-03 -.141E-03
   0.184E+02 -.518E+02 -.544E+02   -.205E+02 0.555E+02 0.574E+02   0.212E+01 -.369E+01 -.295E+01   0.842E-04 -.264E-03 -.708E-04
   0.444E+02 0.346E+02 0.449E+02   -.478E+02 -.368E+02 -.486E+02   0.336E+01 0.223E+01 0.376E+01   0.114E-03 -.107E-03 -.381E-04
   -.494E+02 -.348E+02 0.451E+02   0.523E+02 0.372E+02 -.483E+02   -.296E+01 -.242E+01 0.322E+01   0.181E-04 0.957E-04 0.485E-04
   -.419E+02 0.424E+02 -.324E+02   0.445E+02 -.462E+02 0.357E+02   -.263E+01 0.383E+01 -.327E+01   -.188E-03 0.141E-03 0.151E-03
   0.444E+02 -.449E+02 -.346E+02   -.478E+02 0.486E+02 0.368E+02   0.336E+01 -.376E+01 -.223E+01   0.114E-03 0.381E-04 0.107E-03
   0.184E+02 0.544E+02 0.518E+02   -.205E+02 -.574E+02 -.555E+02   0.212E+01 0.295E+01 0.369E+01   0.842E-04 0.708E-04 0.264E-03
   -.314E+02 -.310E+01 0.310E+01   0.315E+02 0.326E+01 -.326E+01   -.140E+00 -.165E+00 0.165E+00   -.378E-03 -.176E-03 0.176E-03
   0.119E+02 -.740E+01 0.740E+01   -.123E+02 0.768E+01 -.768E+01   0.381E+00 -.282E+00 0.282E+00   0.666E-04 -.958E-05 0.958E-05
   -.122E+02 0.197E+02 -.114E+02   0.125E+02 -.201E+02 0.116E+02   -.323E+00 0.464E+00 -.206E+00   0.200E-04 0.111E-03 0.576E-06
   -.122E+02 0.114E+02 -.197E+02   0.125E+02 -.116E+02 0.201E+02   -.323E+00 0.206E+00 -.464E+00   0.200E-04 -.584E-06 -.111E-03
   0.501E+02 0.702E+01 0.523E+02   -.509E+02 -.716E+01 -.532E+02   0.836E+00 0.140E+00 0.908E+00   0.230E-03 -.114E-04 0.147E-03
   0.501E+02 -.523E+02 -.702E+01   -.509E+02 0.532E+02 0.716E+01   0.836E+00 -.908E+00 -.140E+00   0.230E-03 -.147E-03 0.114E-04
   0.416E+02 -.217E+02 0.217E+02   -.423E+02 0.220E+02 -.220E+02   0.728E+00 -.355E+00 0.355E+00   0.305E-03 -.135E-03 0.135E-03
   0.200E+02 0.155E+02 -.155E+02   -.200E+02 -.157E+02 0.157E+02   0.412E-01 0.241E+00 -.241E+00   0.117E-02 0.644E-03 -.644E-03
   0.283E+01 -.235E+01 0.235E+01   0.213E-13 -.515E-13 0.178E-13   -.283E+01 0.234E+01 -.234E+01   0.791E-03 -.198E-03 0.198E-03

 POSITION                                       TOTAL-FORCE (eV/Angst)
      9.66134      2.31572      2.55206        -0.000016      0.000182     -0.000182
      9.39802      7.34181      7.26413        -0.000054      0.000204     -0.000204
      0.16041      2.82746      6.84412         0.000002     -0.000042      0.000164
      0.16041      7.76182      2.04032         0.000002     -0.000164      0.000042
      1.83190      1.77887      9.38409        -0.000086     -0.000108     -0.000045
      2.02964      7.77486      0.06034         0.000086     -0.000083     -0.000050
      8.02456      1.49979      0.40197        -0.000013     -0.000192      0.000042
      7.20498      7.01916      9.65026         0.000626      0.000591     -0.000111
      2.20904      9.60527      2.04157        -0.000185     -0.000062     -0.000103
      3.13803      0.44501      6.60159         0.000161      0.000056     -0.000096
      6.68331      9.46532      7.01346        -0.000295      0.000054     -0.000081
      6.77258      0.08628      2.96108        -0.000060     -0.000019      0.000008
      3.13803      8.00435      4.42276         0.000161      0.000096     -0.000056
      2.20904      2.82620      5.00067        -0.000185      0.000103      0.000062
      6.68331      7.59248      5.14062        -0.000295      0.000081     -0.000054
      6.77258      1.90669      4.78149        -0.000060     -0.000008      0.000019
      2.02964      4.80743      6.83108         0.000086      0.000050      0.000083
      1.83190      5.22185      3.08891        -0.000086      0.000045      0.000108
      8.02456      4.46581      3.36799        -0.000013     -0.000042      0.000192
      7.20498      4.95567      7.58678         0.000626      0.000111     -0.000591
      4.54449      3.14853      8.08137        -0.000054      0.000094      0.000227
      4.54449      6.52457      1.71924        -0.000054     -0.000227     -0.000094
      5.40155      3.20779      1.65998        -0.000043      0.000140     -0.000140
      4.91406      6.72090      7.88504         0.000012     -0.000289      0.000289
      4.89985      4.86176      4.79076         0.000189     -0.000019      0.000838
      4.89985      0.07702      0.00602         0.000189     -0.000838      0.000019
      0.06474      4.74803      0.11974         0.000421      0.000444     -0.000444
      0.05196      9.61409      4.99184        -0.000093     -0.000004      0.000004
      1.35063      8.49386      6.11207         0.000013      0.000155     -0.000155
      1.32632      1.02292      3.84485        -0.000210     -0.000021      0.000021
      8.57661      8.41416      3.85535         0.000103      0.000067      0.000145
      8.57661      1.01242      6.19177         0.000103     -0.000145     -0.000067
      8.63191      5.85449      1.39396         0.000021     -0.000133      0.000075
      8.63191      3.47381      8.75145         0.000021     -0.000075      0.000133
      1.07517      6.02016      8.58578        -0.000332     -0.000134      0.000134
      1.38663      3.65147      1.21630        -0.000039      0.000102     -0.000102
      6.13678      1.29769      8.65344        -0.000044      0.000020      0.000087
      5.96597      8.52053      1.20026        -0.000131      0.000180     -0.000072
      3.78180      1.35043      1.14493        -0.000045     -0.000053      0.000022
      3.71628      8.73069      8.45677         0.000246      0.000194      0.000157
      6.13678      5.95250      3.57008        -0.000044     -0.000087     -0.000020
      5.96597      3.66751      6.08540        -0.000131      0.000072     -0.000180
      3.71628      6.14917      5.87524         0.000246     -0.000157     -0.000194
      3.78180      3.72285      3.51734        -0.000045     -0.000022      0.000053
      7.14833      7.22813      7.37781         0.000025      0.000072     -0.000072
      7.38685      2.30501      2.56276        -0.000009     -0.000004      0.000004
      2.44244      7.33843      2.30868        -0.000050      0.000009      0.000009
      2.44244      2.55909      7.26751        -0.000050     -0.000009     -0.000009
      0.30724      9.68673      0.40135        -0.000043     -0.000176     -0.000059
      0.30724      4.46643      4.91920        -0.000043      0.000059      0.000176
      5.19264      9.61229      4.99365         0.000005      0.000084     -0.000084
      5.12936      5.00479      9.60115        -0.000535     -0.000154      0.000154
    total drift:                                0.002966     -0.003005      0.002985

  FREE ENERGIE OF THE ION-ELECTRON SYSTEM (eV)
  free  energy   TOTEN  =      -271.77676909 eV

  energy  without entropy=     -271.77676909  energy(sigma->0) =     -271.77676909

 d Force = 0.6849833E-06[ 0.349E-06, 0.102E-05]  d Energy = 0.9886411E-06-0.304E-06
 d Force = 0.1827834E-01[ 0.183E-01, 0.183E-01]  d Ewald  = 0.1827834E-01 0.164E-10

 stress matrix after NEB project (eV)
     -1.19861      0.92075     -0.92075
      0.92075      0.58494      3.94952
     -0.92075      3.94952      0.58494
  FORCES: max atom, RMS     0.000868    0.000335
  FORCE total and by dimension    0.002417    0.000838
  Stress total and by dimension    6.058833    3.949519
 Conjugate gradient step on ions:
 trial-energy change:   -0.000001  1 .order   -0.000001   -0.000001   -0.000000
  (g-gl).g = 0.710E-06      g.g   = 0.774E-06  gl.gl    = 0.138E-05
 g(Force)  = 0.774E-06   g(Stress)= 0.000E+00 ortho     = 0.643E-07
 gamma     =   0.51339
 trial     =   1.26469
 opt step  =   1.92051  (harmonic =   1.92051) maximal distance =0.00011613
 next E    =  -271.776769   (d E  =  -0.00000)

 reached required accuracy - stopping structural energy minimisation