 vasp.6.4.1 05Apr23 (build Jun 07 2023 15:38:11) complex

 executed on             LinuxIFC date 2023.10.01  02:57:54

 INCAR:
   GGA = PE
   PREC = Accu
   EDIFF = 1.e-5
   EDIFFG = -1.e-2
   ENCUT = 520.
   NELM = 100
   NELMDL = -10
   LASPH = .TRUE.
   LREAL = Auto
   LMAXMIX = 4
   ISPIN = 2
   LDIAG = .TRUE.
   LPLANE = .TRUE.
   IVDW = 12
   SIGMA = 0.03
   ISMEAR = 0
   NSW = 1000    number of steps for IOM
   IBRION = 1    ionic relax: 0-MD 1-quasi-New 2-CG
   ISIF = 2    ionic relaxation + stress tensor calcn.
   LCHARG = .FALSE.
   LWAVE = .FALSE.
   ALGO = V
   KPAR = 1
   NPAR = 4

 POTCAR:    PAW_PBE Li_sv_GW 25Mar2010
 POTCAR:    PAW_PBE P_GW 19Mar2012
 POTCAR:    PAW_PBE S_GW 19Mar2012
 POTCAR:    PAW_PBE Cl_GW 19Mar2012
|           W    W    AA    RRRRR   N    N  II  N    N   GGGG   !!!           |
|           W    W   A  A   R    R  NN   N  II  NN   N  G    G  !!!           |
|           W    W  A    A  R    R  N N  N  II  N N  N  G       !!!           |
|           W WW W  AAAAAA  RRRRR   N  N N  II  N  N N  G  GGG   !            |
|           WW  WW  A    A  R   R   N   NN  II  N   NN  G    G                |
|           W    W  A    A  R    R  N    N  II  N    N   GGGG   !!!           |
|     You use a magnetic or noncollinear calculation, but did not specify     |
|     the initial magnetic moment with the MAGMOM tag. Note that a            |
|     default of 1 will be used for all atoms. This ferromagnetic setup       |
|     may break the symmetry of the crystal, in particular it may rule        |
|     out finding an antiferromagnetic solution. Thence, we recommend         |
|     setting the initial magnetic moment manually or verifying carefully     |
|     that this magnetic setup is desired.                                    |

   TITEL  = PAW_PBE Li_sv_GW 25Mar2010
   POMASS =    7.010; ZVAL   =    3.000    mass and valenz
   ENMAX  =  433.699; ENMIN  =  325.274 eV

   TITEL  = PAW_PBE P_GW 19Mar2012
   POMASS =   30.974; ZVAL   =    5.000    mass and valenz
   ENMAX  =  255.040; ENMIN  =  191.280 eV

[...]

   TITEL  = PAW_PBE Cl_GW 19Mar2012
   POMASS =   35.453; ZVAL   =    7.000    mass and valenz
   ENMAX  =  262.472; ENMIN  =  196.854 eV

 Optimization of the real space projectors (new method)

 maximal supplied QI-value         = 25.13
 optimisation between [QCUT,QGAM] = [ 11.56, 23.12] = [ 37.43,149.72] Ry
 Optimized for a Real-space Cutoff    1.28 Angstroem

   l    n(q)    QCUT    max X(q) W(low)/X(q) W(high)/X(q)  e(spline)
   0      9    11.561    87.733    0.11E-03    0.32E-04    0.56E-06
   0      9    11.561    82.800    0.11E-03    0.35E-04    0.56E-06
   0      9    11.561     2.509    0.22E-03    0.42E-04    0.79E-06
   1      8    11.561    12.580    0.94E-04    0.26E-03    0.21E-06
   1      8    11.561     1.319    0.33E-04    0.15E-03    0.19E-06
   2      8    11.561     1.993    0.36E-04    0.89E-04    0.26E-06
 Optimization of the real space projectors (new method)

[...]

   l    n(q)    QCUT    max X(q) W(low)/X(q) W(high)/X(q)  e(spline)
   0     10    11.508     7.541    0.34E-04    0.13E-04    0.69E-07
   0     10    11.508     1.809    0.49E-04    0.27E-04    0.14E-06
   1     10    11.508     4.107    0.27E-05    0.41E-05    0.14E-06
   1     10    11.508     2.196    0.26E-05    0.25E-05    0.22E-06
   2      9    11.508     4.265    0.18E-03    0.11E-03    0.81E-06
   2      9    11.508     1.925    0.97E-04    0.76E-04    0.47E-06
 Optimization of the real space projectors (new method)

 maximal supplied QI-value         = 19.84
 optimisation between [QCUT,QGAM] = [ 11.51, 23.22] = [ 37.09,150.92] Ry
 Optimized for a Real-space Cutoff    1.21 Angstroem

   l    n(q)    QCUT    max X(q) W(low)/X(q) W(high)/X(q)  e(spline)
   0      8    11.508     6.761    0.57E-04    0.57E-04    0.35E-07
   0      8    11.508     1.642    0.14E-03    0.14E-03    0.91E-07
   1      8    11.508     3.519    0.20E-04    0.72E-04    0.47E-07
   1      8    11.508     2.150    0.27E-04    0.11E-03    0.89E-07
   2      7    11.508     2.976    0.19E-03    0.33E-03    0.16E-06
   2      7    11.508     1.494    0.14E-03    0.29E-03    0.14E-06
  PAW_PBE Li_sv_GW 25Mar2010            :
  PAW_PBE P_GW 19Mar2012                :
  PAW_PBE S_GW 19Mar2012                :
  PAW_PBE Cl_GW 19Mar2012               :

 POSCAR: Li24 P4 S20 Cl4
  positions in direct lattice
 exchange correlation table for  LEXCH =        8
   RHO(1)=    0.500       N(1)  =     2000
   RHO(2)=  100.500       N(2)  =     4000

 VTST: version 4.1, (05/19/21)

 CHAIN: initializing optimizer

 OPT: Using VASP QUASI-newton optimizer
 CHAIN: Read ICHAIN            0

 POSCAR: Li24 P4 S20 Cl4
  positions in direct lattice

 ion  position               nearest neighbor table
   1  0.977  0.250  0.250-
   2  0.977  0.752  0.751-
   3  0.023  0.250  0.750-
   4  0.023  0.750  0.250-
   5  0.250  0.250  0.977-
   6  0.250  0.750  0.023-
   7  0.750  0.250  0.023-
   8  0.750  0.750  0.977-
   9  0.250  0.977  0.250-
  10  0.250  0.023  0.750-
  11  0.750  0.977  0.750-
  12  0.750  0.023  0.250-
  13  0.250  0.750  0.477-
  14  0.250  0.250  0.524-
  15  0.750  0.750  0.523-
  16  0.750  0.250  0.477-
  17  0.250  0.477  0.750-
  18  0.250  0.523  0.250-
  19  0.750  0.477  0.250-
  20  0.751  0.523  0.750-
  21  0.477  0.250  0.750-
  22  0.477  0.750  0.250-
  23  0.523  0.250  0.250-
  24  0.523  0.750  0.750-
  25  0.500  0.500  0.500-  42 2.05  43 2.05  41 2.05  44 2.05
  26  0.500  1.000  0.000-  38 2.05  39 2.05  37 2.05  40 2.05
  27  1.000  0.500  0.000-  36 2.05  33 2.05  35 2.05  34 2.05
  28  0.000  0.000  0.500-  29 2.05  32 2.05  30 2.05  31 2.05
  29  0.118  0.882  0.618-  28 2.05
  30  0.118  0.118  0.382-  28 2.05
  31  0.882  0.882  0.382-  28 2.05
  32  0.882  0.118  0.618-  28 2.05
  33  0.882  0.618  0.118-  27 2.05
  34  0.882  0.382  0.882-  27 2.05
  35  0.118  0.618  0.882-  27 2.05
  36  0.118  0.382  0.118-  27 2.05
  37  0.618  0.118  0.882-  26 2.05
  38  0.618  0.882  0.118-  26 2.05
  39  0.382  0.118  0.118-  26 2.05
  40  0.382  0.882  0.882-  26 2.05
  41  0.618  0.618  0.382-  25 2.05
  42  0.618  0.382  0.618-  25 2.05
  43  0.382  0.618  0.618-  25 2.05
  44  0.382  0.382  0.382-  25 2.05
  45  0.750  0.750  0.750-
  46  0.750  0.250  0.250-
  47  0.250  0.750  0.250-
  48  0.250  0.250  0.750-
  49  0.000  1.000  0.999-
  50  1.000  0.500  0.499-
  51  0.500  1.000  0.500-
  52  0.500  0.500  0.000-

  LATTYP: Found a simple cubic cell.
 ALAT       =    10.0228067168

  Lattice vectors:

 A1 = (  10.0228067168,   0.0000000000,   0.0000000000)
 A2 = (   0.0000000000,  10.0228067168,   0.0000000000)
 A3 = (   0.0000000000,   0.0000000000,  10.0228067168)

Analysis of symmetry for initial positions (statically):
 Subroutine PRICEL returns:
 Original cell was already a primitive cell.

 Routine SETGRP: Setting up the symmetry group for a
 simple cubic supercell.

 Subroutine GETGRP returns: Found  1 space group operations
 (whereof  1 operations were pure point group operations)
 out of a pool of 48 trial point group operations.

The static configuration has the point symmetry C_1 .

Analysis of symmetry for dynamics (positions and initial velocities):
 Subroutine PRICEL returns:
 Original cell was already a primitive cell.

[...]

The dynamic configuration has the point symmetry C_1 .

Analysis of structural, dynamic, and magnetic symmetry:
 Subroutine PRICEL returns:
 Original cell was already a primitive cell.

 Routine SETGRP: Setting up the symmetry group for a
 simple cubic supercell.

 Subroutine GETGRP returns: Found  1 space group operations
 (whereof  1 operations were pure point group operations)
 out of a pool of 48 trial point group operations.

The overall configuration has the point symmetry C_1 .

 Subroutine INISYM returns: Found  1 space group operations
 (whereof  1 operations are pure point group operations),
 and found     1 'primitive' translations

                                     Primitive cell

  volume of cell :    1006.8576

  direct lattice vectors                    reciprocal lattice vectors
    10.022806717  0.000000000  0.000000000     0.099772452  0.000000000  0.000000000
     0.000000000 10.022806717  0.000000000     0.000000000  0.099772452  0.000000000
     0.000000000  0.000000000 10.022806717     0.000000000  0.000000000  0.099772452

  length of vectors
    10.022806717 10.022806717 10.022806717     0.099772452  0.099772452  0.099772452

  position of ions in fractional coordinates (direct lattice)
     0.976518588  0.250130010  0.250140629
     0.977108441  0.751500731  0.751202448
     0.023148650  0.249841333  0.750234121
     0.023116708  0.749804538  0.250030452
     0.250046537  0.250088012  0.977154342
     0.250110042  0.749887074  0.023107171
     0.749771602  0.250117785  0.023120733
     0.750064368  0.750054988  0.976541272
     0.249961654  0.976683238  0.250259748
     0.250030600  0.023223649  0.750272790
     0.749899935  0.976787645  0.749833292
     0.749817330  0.023189064  0.250025506
     0.249931200  0.749732075  0.476715990
     0.249862664  0.249994522  0.523503053
     0.750346931  0.749796818  0.522947386
     0.749842624  0.249917195  0.476744885
     0.250152626  0.476736545  0.750119711
     0.249909885  0.523161856  0.250142997
     0.749919150  0.476717700  0.249892216
     0.750594150  0.523263272  0.749513119
     0.476742415  0.250209127  0.750265477
     0.476716775  0.749940669  0.249884752
     0.522939684  0.250038438  0.250086936
     0.523491619  0.750076624  0.749833901
     0.500050802  0.500019718  0.500111586
     0.500121975  0.999882871  0.000074924
     0.999979170  0.500042528  0.000032347
     0.000098928  0.000143913  0.499954612
     0.118351676  0.882074259  0.617886795
     0.118093288  0.118359532  0.381781699
     0.881990801  0.882052846  0.381743062
     0.881892831  0.118149267  0.618069533
     0.881726417  0.618181308  0.117971925
     0.881832926  0.381900109  0.881893544
     0.118137512  0.618031175  0.881815530
     0.117893309  0.381939019  0.118259370
     0.618100745  0.118060168  0.881849084
     0.618235531  0.881731655  0.118044205
     0.381881490  0.117840110  0.118204380
     0.382072407  0.881752690  0.881826096
     0.618044088  0.618069560  0.381782783
     0.618133392  0.381923002  0.618175879
     0.381958690  0.618177798  0.618203823
     0.381741402  0.381888138  0.382130283
     0.750290453  0.750013946  0.749761858
     0.749751262  0.249932643  0.249906453
     0.249914798  0.749938331  0.249914442
     0.249949561  0.249987912  0.750324279
     0.000040671  0.999536733  0.999267637
     0.999982620  0.499700982  0.499414771
     0.500006121  0.999975203  0.499880759
     0.499682958  0.499801676  0.000145415

  ion indices of the primitive-cell ions
   primitive index   ion index
                 1           1
                 2           2
                 3           3
                 4           4
                 5           5
                 6           6
                 7           7
                 8           8
                 9           9
                10          10
                11          11
[...]
     13     -43.2907      1.00000
     14     -43.2906      1.00000
     15     -43.2905      1.00000
     16     -43.2903      1.00000
     17     -43.2894      1.00000
     18     -43.2894      1.00000
     19     -43.2892      1.00000
     20     -43.2890      1.00000
     21     -43.2888      1.00000
     22     -43.2888      1.00000
     23     -43.2886      1.00000
     24     -43.2883      1.00000
     25     -14.1204      1.00000
     26     -14.1056      1.00000
     27     -14.1054      1.00000
     28     -14.1052      1.00000
     29     -11.2633      1.00000
     30     -11.2631      1.00000
     31     -11.2628      1.00000
     32     -11.2005      1.00000
     33     -11.1360      1.00000
     34     -11.1351      1.00000
     35     -11.1340      1.00000
     36     -11.1102      1.00000
     37     -11.1097      1.00000
     38     -11.1093      1.00000
     39     -11.1082      1.00000
     40     -11.1080      1.00000
     41     -11.0796      1.00000
     42     -11.0738      1.00000
     43     -11.0721      1.00000
     44     -11.0712      1.00000
     45      -9.6529      1.00000
     46      -9.6525      1.00000
     47      -9.6521      1.00000
     48      -9.6488      1.00000
     49      -7.1108      1.00000
     50      -6.8198      1.00000
     51      -6.8192      1.00000
     52      -6.8187      1.00000
     53      -4.1673      1.00000
     54      -4.1672      1.00000
     55      -4.1669      1.00000
     56      -3.8844      1.00000
     57      -3.7232      1.00000
     58      -3.7228      1.00000
     59      -3.6229      1.00000
     60      -3.6223      1.00000
[...]
    162       8.2397      0.00000
    163       8.2814      0.00000
    164       8.3425      0.00000
    165       8.3834      0.00000
    166       8.4493      0.00000
    167       8.4745      0.00000
    168       8.5508      0.00000
    169       8.6512      0.00000
    170       8.7138      0.00000
    171       8.7566      0.00000
    172       8.8396      0.00000
    173       8.9410      0.00000
    174       9.0072      0.00000
    175       9.1430      0.00000
    176       9.3889      0.00000

[...]

 soft charge-density along one line, spin component           2
         0         1         2         3         4         5         6         7         8         9
 total charge-density along one line

------------------------ aborting loop because EDIFF is reached ----------------------------------------

         DFTD3 V3.0 Rev 1
 Edisp (eV)  -12.09893

 E6    (eV) :    -7.4503
 E8    (eV) :    -4.6486
 % E8        : 38.42

  FORCE on cell =-STRESS in cart. coord.  units (eV):
  Direction    XX          YY          ZZ          XY          YZ          ZX
  Alpha Z   269.60863   269.60863   269.60863
  Ewald   -2759.80127 -2759.63075 -2759.82255     0.02059     0.17439     0.15400
  Hartree   843.84318   843.93304   843.82555     0.12726     0.10834     0.18683
  E(xc)    -946.89816  -946.89807  -946.89806    -0.00061    -0.00032    -0.00022
  Local   -1759.77161 -1760.04417 -1759.72672    -0.17152    -0.29480    -0.36234
  n-local  1481.15363  1481.16221  1481.14907     0.00525     0.01328     0.00457
  augment  -356.06281  -356.06553  -356.06186    -0.00041    -0.00222    -0.00091
  Kinetic  3240.61990  3240.64706  3240.60831     0.00462     0.01791     0.01217
  Fock        0.00000     0.00000     0.00000     0.00000     0.00000     0.00000
  vdW       -12.85166   -12.85160   -12.85164     0.00031     0.00004     0.00017
  Total      -0.16018    -0.13918    -0.16927    -0.01451     0.01663    -0.00573
  in kB      -0.25489    -0.22147    -0.26936    -0.02308     0.02646    -0.00912

 VOLUME and BASIS-vectors are now :
  energy-cutoff  :      520.00
  volume of cell :     1006.86
      direct lattice vectors                 reciprocal lattice vectors
    10.022806717  0.000000000  0.000000000     0.099772452  0.000000000  0.000000000
     0.000000000 10.022806717  0.000000000     0.000000000  0.099772452  0.000000000
     0.000000000  0.000000000 10.022806717     0.000000000  0.000000000  0.099772452

  length of vectors
    10.022806717 10.022806717 10.022806717     0.099772452  0.099772452  0.099772452

 FORCES acting on ions
    electron-ion (+dipol)            ewald-force                    non-local-force                 convergence-correction
   -.674E+01 0.165E+00 0.133E+00   0.605E+01 -.159E+00 -.128E+00   0.686E+00 -.854E-02 -.749E-02   0.249E-03 0.100E-02 0.910E-03
   -.681E+01 -.170E+00 -.203E+00   0.611E+01 0.142E+00 0.174E+00   0.693E+00 0.201E-01 0.210E-01   -.641E-03 0.294E-02 0.323E-02
   0.678E+01 -.653E-01 -.288E-01   -.608E+01 0.682E-01 0.296E-01   -.690E+00 -.182E-02 -.217E-02   0.206E-03 -.309E-03 0.594E-03
   0.679E+01 -.623E-01 -.101E+00   -.609E+01 0.650E-01 0.981E-01   -.691E+00 -.266E-02 0.292E-02   0.123E-03 0.100E-03 0.224E-03
   0.171E-01 0.212E-01 -.684E+01   -.187E-01 -.209E-01 0.614E+01   0.443E-03 -.817E-03 0.695E+00   0.340E-03 0.163E-03 -.783E-03
   -.821E-01 0.107E-01 0.673E+01   0.794E-01 -.121E-01 -.603E+01   0.242E-02 0.143E-02 -.691E+00   0.135E-03 -.302E-04 0.110E-03
   -.435E-01 -.439E-01 0.677E+01   0.415E-01 0.407E-01 -.607E+01   0.264E-02 0.192E-02 -.690E+00   -.213E-03 0.504E-03 0.183E-03
   0.177E+00 0.113E+00 -.677E+01   -.175E+00 -.113E+00 0.607E+01   -.236E-02 -.170E-03 0.685E+00   -.136E-03 -.309E-04 0.148E-03
   0.360E-01 -.681E+01 -.145E-02   -.337E-01 0.611E+01 -.106E-02   -.207E-02 0.691E+00 0.272E-02   -.100E-03 0.644E-04 -.113E-03
   -.632E-01 0.676E+01 0.491E-01   0.651E-01 -.606E+01 -.520E-01   -.170E-02 -.692E+00 0.238E-02   -.169E-03 -.465E-04 0.156E-03
   0.222E+00 -.684E+01 0.136E+00   -.216E+00 0.614E+01 -.136E+00   -.499E-02 0.690E+00 0.362E-03   -.579E-03 0.422E-03 -.485E-03
   -.669E-01 0.677E+01 -.716E-02   0.647E-01 -.607E+01 0.602E-02   0.274E-02 -.690E+00 -.259E-03   -.207E-03 0.101E-03 0.524E-03
   0.114E+00 0.886E-01 -.685E+01   -.109E+00 -.817E-01 0.616E+01   -.428E-02 -.670E-02 0.690E+00   -.135E-03 -.932E-04 -.471E-04
   -.455E-01 0.177E-01 0.670E+01   0.458E-01 -.153E-01 -.601E+01   -.388E-03 -.284E-02 -.684E+00   -.433E-05 0.221E-03 -.511E-03
   -.129E+00 0.141E+00 0.677E+01   0.128E+00 -.133E+00 -.607E+01   -.608E-03 -.758E-02 -.693E+00   0.761E-03 -.278E-03 0.273E-03
   0.712E-01 0.482E-01 -.681E+01   -.704E-01 -.446E-01 0.611E+01   -.939E-03 -.327E-02 0.688E+00   -.506E-04 -.191E-03 -.160E-03
   0.563E-01 -.683E+01 0.995E-01   -.594E-01 0.613E+01 -.948E-01   0.290E-02 0.690E+00 -.498E-02   0.512E-04 0.223E-03 0.165E-03
   -.547E-01 0.679E+01 -.700E-02   0.519E-01 -.609E+01 0.639E-02   0.246E-02 -.691E+00 0.416E-03   0.824E-04 0.265E-04 0.839E-04
   0.532E-01 -.680E+01 0.411E-01   -.553E-01 0.611E+01 -.376E-01   0.192E-02 0.689E+00 -.380E-02   -.175E-04 0.243E-03 -.173E-04
   -.190E+00 0.674E+01 0.188E+00   0.184E+00 -.605E+01 -.178E+00   0.280E-02 -.690E+00 -.722E-02   0.158E-02 0.196E-03 -.112E-02
   -.681E+01 -.694E-01 0.134E-01   0.612E+01 0.642E-01 -.142E-01   0.691E+00 0.466E-02 -.149E-03   -.346E-04 0.231E-03 0.348E-03
   -.680E+01 -.762E-03 -.194E-01   0.610E+01 -.181E-03 0.211E-01   0.689E+00 0.123E-02 -.202E-02   -.659E-04 -.159E-03 0.928E-04
   0.681E+01 -.124E-01 0.137E-02   -.611E+01 0.943E-02 -.114E-02   -.693E+00 0.285E-02 0.376E-04   0.334E-03 -.432E-04 -.205E-03
   0.673E+01 0.265E-01 0.376E-01   -.604E+01 -.279E-01 -.378E-01   -.685E+00 0.267E-03 0.116E-02   -.375E-03 0.370E-03 -.404E-03
   -.789E-01 -.375E-01 -.696E-01   0.757E-01 0.355E-01 0.698E-01   0.469E-02 0.128E-02 0.193E-02   -.344E-03 0.288E-04 -.249E-03
   -.901E-02 -.605E-01 -.604E-01   0.828E-02 0.539E-01 0.582E-01   0.173E-02 0.609E-02 0.421E-02   -.382E-03 0.402E-04 -.391E-03
   -.764E-02 0.710E-01 0.123E+00   0.525E-02 -.715E-01 -.121E+00   0.352E-02 -.104E-03 0.211E-03   -.315E-03 -.321E-03 -.498E-03
   0.386E-03 0.843E-01 0.808E-01   0.257E-02 -.807E-01 -.830E-01   -.210E-02 -.434E-02 0.423E-02   -.153E-03 -.208E-03 -.606E-03
   -.452E+02 0.453E+02 -.446E+02   0.485E+02 -.486E+02 0.479E+02   -.331E+01 0.330E+01 -.328E+01   0.182E-03 -.560E-03 -.457E-03
   -.450E+02 -.450E+02 0.452E+02   0.483E+02 0.483E+02 -.485E+02   -.329E+01 -.330E+01 0.329E+01   -.125E-03 -.442E-03 -.596E-03
   0.450E+02 0.450E+02 0.451E+02   -.483E+02 -.483E+02 -.484E+02   0.329E+01 0.329E+01 0.330E+01   0.401E-03 0.301E-03 -.204E-03
   0.451E+02 -.451E+02 -.449E+02   -.484E+02 0.484E+02 0.482E+02   0.330E+01 -.330E+01 -.329E+01   -.783E-04 0.251E-03 -.133E-03
   0.452E+02 -.450E+02 -.450E+02   -.485E+02 0.483E+02 0.483E+02   0.330E+01 -.330E+01 -.329E+01   -.252E-03 0.648E-04 -.169E-03
   0.451E+02 0.450E+02 0.451E+02   -.484E+02 -.483E+02 -.484E+02   0.330E+01 0.329E+01 0.329E+01   0.214E-03 0.163E-03 0.161E-03
   -.450E+02 -.447E+02 0.455E+02   0.483E+02 0.479E+02 -.488E+02   -.330E+01 -.329E+01 0.331E+01   -.120E-03 -.477E-03 -.455E-03
   -.449E+02 0.453E+02 -.449E+02   0.482E+02 -.485E+02 0.482E+02   -.329E+01 0.329E+01 -.331E+01   -.508E-04 -.748E-03 -.349E-03
   -.450E+02 -.451E+02 0.451E+02   0.483E+02 0.484E+02 -.484E+02   -.329E+01 -.329E+01 0.330E+01   -.510E-04 0.728E-05 0.170E-03
   -.451E+02 0.451E+02 -.450E+02   0.484E+02 -.484E+02 0.483E+02   -.330E+01 0.330E+01 -.329E+01   0.325E-03 -.239E-03 0.183E-03
   0.452E+02 -.449E+02 -.451E+02   -.485E+02 0.482E+02 0.484E+02   0.330E+01 -.329E+01 -.331E+01   -.361E-03 -.845E-04 -.169E-03
   0.449E+02 0.451E+02 0.451E+02   -.482E+02 -.484E+02 -.484E+02   0.328E+01 0.329E+01 0.330E+01   0.368E-03 0.210E-03 0.246E-03
   -.450E+02 -.451E+02 0.450E+02   0.483E+02 0.484E+02 -.483E+02   -.329E+01 -.330E+01 0.330E+01   -.112E-03 0.135E-03 0.722E-04
   -.450E+02 0.450E+02 -.452E+02   0.483E+02 -.483E+02 0.485E+02   -.329E+01 0.329E+01 -.330E+01   0.195E-03 -.687E-04 0.393E-03
   0.451E+02 -.451E+02 -.451E+02   -.483E+02 0.484E+02 0.484E+02   0.329E+01 -.330E+01 -.329E+01   -.151E-03 0.516E-04 0.407E-04
   0.450E+02 0.451E+02 0.449E+02   -.483E+02 -.484E+02 -.482E+02   0.330E+01 0.329E+01 0.328E+01   0.273E-03 0.192E-03 0.238E-03
   0.830E-01 0.394E+00 0.328E+00   -.774E-01 -.400E+00 -.336E+00   -.642E-02 0.730E-02 0.935E-02   -.294E-03 -.577E-03 -.937E-04
   -.766E-02 0.137E+00 0.135E+00   0.238E-02 -.138E+00 -.135E+00   0.567E-02 0.113E-02 0.821E-03   0.321E-03 -.432E-03 -.462E-03
   0.150E-01 -.143E+00 0.156E-01   -.169E-01 0.144E+00 -.204E-01   0.225E-02 -.120E-02 0.517E-02   -.202E-04 0.308E-03 0.387E-04
   0.102E-01 -.344E-01 0.506E-01   -.126E-01 0.328E-01 -.438E-01   0.276E-02 0.159E-02 -.816E-02   -.363E-04 0.949E-04 -.116E-03
   0.772E-02 -.691E+00 -.101E+01   -.895E-02 0.713E+00 0.105E+01   0.141E-02 -.264E-01 -.419E-01   0.413E-05 0.798E-03 0.120E-02
   -.272E-01 -.440E+00 -.813E+00   0.319E-01 0.449E+00 0.836E+00   -.576E-02 -.104E-01 -.275E-01   0.154E-03 0.310E-03 0.631E-03
   0.445E-01 0.215E-01 -.140E+00   -.507E-01 -.237E-01 0.145E+00   0.717E-02 0.253E-02 -.598E-02   -.101E-03 -.471E-04 0.759E-04
   -.366E+00 -.204E+00 0.206E+00   0.377E+00 0.215E+00 -.212E+00   -.133E-01 -.133E-01 0.755E-02   0.191E-03 0.162E-03 -.128E-03
   -.150E-01 0.124E-01 0.174E-01   -.940E-13 0.251E-13 0.320E-13   0.105E-02 -.406E-01 -.438E-01   0.818E-03 0.454E-02 0.157E-02

 POSITION                                       TOTAL-FORCE (eV/Angst)
      9.78757      2.50770      2.50768         0.000025     -0.001252     -0.001269
      9.79314      7.53353      7.53056         0.001029     -0.004768     -0.005053
      0.23216      2.50383      7.51970        -0.000048      0.001223     -0.000352
      0.23184      7.51497      2.50618         0.000104      0.000644      0.000113
      2.50645      2.50679      9.79346        -0.000629     -0.000001      0.001366
      2.50681      7.51590      0.23173         0.000138      0.000440      0.000499
      7.51462      2.50717      0.23188         0.000745     -0.000389      0.000333
      7.51775      7.51776      9.78774        -0.000038      0.000173      0.000528
      2.50564      9.78920      2.50843         0.000385      0.000472      0.000462
      2.50575      0.23268      7.51994         0.000376      0.000547      0.000064
      7.51596      9.79032      7.51524         0.000589      0.000016      0.000881
      7.51497      0.23243      2.50629         0.000677      0.000346     -0.000497
      2.50490      7.51435      4.77803         0.000205      0.000584      0.000537
      2.50431      2.50575      5.24678         0.000168      0.000164      0.001076
      7.52094      7.51492      5.24157        -0.000831      0.000797      0.000183
      7.51549      2.50485      4.77827         0.000153      0.000573      0.000724
      2.50741      4.77838      7.51845         0.000019      0.000353      0.000230
      2.50474      5.24349      2.50716        -0.000057      0.000363      0.000310
      7.51639      4.77819      2.50472         0.000019      0.000260      0.000157
      7.52369      5.24462      7.51167        -0.001822      0.000271      0.001890
      4.77835      2.50800      7.51993         0.000214      0.000089     -0.000162
      4.77807      7.51648      2.50460         0.000302      0.000562      0.000230
      5.24152      2.50608      2.50649         0.000039      0.000302      0.000538
      5.24675      7.51804      7.51526         0.000725     -0.000288      0.001012
      5.01145      5.01153      5.01196         0.001454     -0.000176      0.002284
      5.01197     10.02182      0.00010         0.000855      0.000095      0.002125
     10.02232      5.01166     -0.00007         0.001146     -0.000346      0.001983
      0.00066      0.00117      5.01067         0.000919     -0.000514      0.002060
      1.18621      8.84056      6.19314        -0.001062     -0.000081     -0.000204
      1.18360      1.18603      3.82670         0.000038     -0.000577      0.000393
      8.84009      8.84054      3.82619        -0.000948     -0.001095     -0.000806
      8.83917      1.18420      6.19482         0.000574      0.000197     -0.000012
      8.83754      6.19586      1.18249         0.000717     -0.000073      0.000164
      8.83851      3.82762      8.83915        -0.000962     -0.001131     -0.000648
      1.18395      6.19432      8.83841        -0.000190      0.000324      0.000036
      1.18188      3.82787      1.18522        -0.000109      0.000336     -0.001318
      6.19510      1.18326      8.83884         0.000264      0.000922      0.000273
      6.19641      8.83748      1.18323        -0.002101      0.002304     -0.001241
      3.82750      1.18125      1.18474        -0.000481      0.001134     -0.000052
      3.82942      8.83760      8.83847        -0.001690     -0.001001     -0.000991
      6.19459      6.19474      3.82686         0.000422      0.000702      0.000835
      6.19557      3.82788      6.19599        -0.001065      0.001534     -0.000824
      3.82836      6.19585      6.19619         0.000029      0.000089      0.000050
      3.82629      3.82753      3.83004        -0.000857     -0.001217     -0.001395
      7.51976      7.51730      7.51486        -0.000825      0.000610      0.000912
      7.51478      2.50508      2.50483         0.000933      0.000560      0.000538
      2.50495      7.51650      2.50496         0.000525      0.000474      0.000791
      2.50527      2.50560      7.52001         0.000500      0.000466     -0.000967
      0.00046     10.01735     10.01417         0.000403     -0.003434     -0.005664
     10.02247      5.00809      5.00473        -0.000575     -0.001095     -0.003213
      5.01168     10.02264      5.01003         0.001080      0.000725     -0.000376
      5.00782      5.00901      0.00171        -0.001480     -0.001213      0.001469
    total drift:                               -0.013129     -0.023697     -0.024844

  FREE ENERGIE OF THE ION-ELECTRON SYSTEM (eV)
  free  energy   TOTEN  =      -268.23204733 eV

  energy  without entropy=     -268.23204733  energy(sigma->0) =     -268.23204733

 d Force = 0.3479918E-05[-0.417E-06, 0.738E-05]  d Energy = 0.7742945E-05-0.426E-05
 d Force =-0.1978206E-03[-0.200E-03,-0.196E-03]  d Ewald  =-0.1978206E-03-0.109E-10

 stress matrix after NEB project (eV)
     -0.16018     -0.01451     -0.00573
     -0.01451     -0.13918      0.01663
     -0.00573      0.01663     -0.16927
  FORCES: max atom, RMS     0.007023    0.001993
  FORCE total and by dimension    0.014373    0.005664
  Stress total and by dimension    0.273350    0.169272
 Quasi-Newton relaxation of ions (Broydens 2nd method)
  g(Force)  = 0.997E-05   g(Stress)= 0.000E+00

 retain information from N=  2 steps
 eigenvalues of (default step * inverse Hessian matrix)
  average eigenvalue of G=   0.6154
 eigenvalue spectrum of G is  0.6154  0.6154

 reached required accuracy - stopping structural energy minimisation