 vasp.6.4.1 05Apr23 (build Jun 07 2023 15:38:11) complex

 executed on             LinuxIFC date 2023.10.20  08:20:17

 INCAR:
   GGA = PE
   PREC = Accu
   EDIFF = 1.e-6
   EDIFFG = -1.e-3
   ENCUT = 520.
   NELM = 100
   NELMDL = -10
   LASPH = .TRUE.
   LREAL = Auto
   LMAXMIX = 4
   ISPIN = 2
   LDIAG = .TRUE.
   LPLANE = .TRUE.
   IVDW = 12
   SIGMA = 0.03
   ISMEAR = 0
   NSW = 1000    number of steps for IOM
   IBRION = 2    ionic relax: 0-MD 1-quasi-New 2-CG
   ISIF = 2    ionic relaxation + stress tensor calcn.
   LCHARG = .FALSE.
   LWAVE = .FALSE.
   ALGO = F
   KPAR = 1
   NPAR = 4
   POTIM = 0.2

 POTCAR:    PAW_PBE Li_sv_GW 25Mar2010
 POTCAR:    PAW_PBE P_GW 19Mar2012
 POTCAR:    PAW_PBE S_GW 19Mar2012
 POTCAR:    PAW_PBE Cl_GW 19Mar2012
|           W    W    AA    RRRRR   N    N  II  N    N   GGGG   !!!           |
|           W    W   A  A   R    R  NN   N  II  NN   N  G    G  !!!           |
|           W    W  A    A  R    R  N N  N  II  N N  N  G       !!!           |
|           W WW W  AAAAAA  RRRRR   N  N N  II  N  N N  G  GGG   !            |
|           WW  WW  A    A  R   R   N   NN  II  N   NN  G    G                |
|           W    W  A    A  R    R  N    N  II  N    N   GGGG   !!!           |
|     You use a magnetic or noncollinear calculation, but did not specify     |
|     the initial magnetic moment with the MAGMOM tag. Note that a            |
|     default of 1 will be used for all atoms. This ferromagnetic setup       |
|     may break the symmetry of the crystal, in particular it may rule        |
|     out finding an antiferromagnetic solution. Thence, we recommend         |
|     setting the initial magnetic moment manually or verifying carefully     |
|     that this magnetic setup is desired.                                    |

   TITEL  = PAW_PBE Li_sv_GW 25Mar2010
   POMASS =    7.010; ZVAL   =    3.000    mass and valenz
   ENMAX  =  433.699; ENMIN  =  325.274 eV

   TITEL  = PAW_PBE P_GW 19Mar2012
   POMASS =   30.974; ZVAL   =    5.000    mass and valenz
   ENMAX  =  255.040; ENMIN  =  191.280 eV

[...]

   TITEL  = PAW_PBE Cl_GW 19Mar2012
   POMASS =   35.453; ZVAL   =    7.000    mass and valenz
   ENMAX  =  262.472; ENMIN  =  196.854 eV

 Optimization of the real space projectors (new method)

 maximal supplied QI-value         = 25.13
 optimisation between [QCUT,QGAM] = [ 11.56, 23.12] = [ 37.43,149.72] Ry
 Optimized for a Real-space Cutoff    1.28 Angstroem

   l    n(q)    QCUT    max X(q) W(low)/X(q) W(high)/X(q)  e(spline)
   0      9    11.561    87.733    0.11E-03    0.32E-04    0.56E-06
   0      9    11.561    82.800    0.11E-03    0.35E-04    0.56E-06
   0      9    11.561     2.509    0.22E-03    0.42E-04    0.79E-06
   1      8    11.561    12.580    0.94E-04    0.26E-03    0.21E-06
   1      8    11.561     1.319    0.33E-04    0.15E-03    0.19E-06
   2      8    11.561     1.993    0.36E-04    0.89E-04    0.26E-06
 Optimization of the real space projectors (new method)

[...]

   l    n(q)    QCUT    max X(q) W(low)/X(q) W(high)/X(q)  e(spline)
   0     10    11.508     7.541    0.34E-04    0.13E-04    0.69E-07
   0     10    11.508     1.809    0.49E-04    0.27E-04    0.14E-06
   1     10    11.508     4.107    0.27E-05    0.41E-05    0.14E-06
   1     10    11.508     2.196    0.26E-05    0.25E-05    0.22E-06
   2      9    11.508     4.265    0.18E-03    0.11E-03    0.81E-06
   2      9    11.508     1.925    0.97E-04    0.76E-04    0.47E-06
 Optimization of the real space projectors (new method)

 maximal supplied QI-value         = 19.84
 optimisation between [QCUT,QGAM] = [ 11.51, 23.22] = [ 37.09,150.92] Ry
 Optimized for a Real-space Cutoff    1.21 Angstroem

   l    n(q)    QCUT    max X(q) W(low)/X(q) W(high)/X(q)  e(spline)
   0      8    11.508     6.761    0.57E-04    0.57E-04    0.35E-07
   0      8    11.508     1.642    0.14E-03    0.14E-03    0.91E-07
   1      8    11.508     3.519    0.20E-04    0.72E-04    0.47E-07
   1      8    11.508     2.150    0.27E-04    0.11E-03    0.89E-07
   2      7    11.508     2.976    0.19E-03    0.33E-03    0.16E-06
   2      7    11.508     1.494    0.14E-03    0.29E-03    0.14E-06
  PAW_PBE Li_sv_GW 25Mar2010            :
  PAW_PBE P_GW 19Mar2012                :
  PAW_PBE S_GW 19Mar2012                :
  PAW_PBE Cl_GW 19Mar2012               :

 POSCAR: Li24 P4 S20 Cl4
  positions in direct lattice
  velocities in cartesian coordinates
 exchange correlation table for  LEXCH =        8
   RHO(1)=    0.500       N(1)  =     2000
   RHO(2)=  100.500       N(2)  =     4000

 VTST: version 4.1, (05/19/21)

 CHAIN: initializing optimizer

 OPT: Using VASP Conjugate-Gradient optimizer
 CHAIN: Read ICHAIN            0

 POSCAR: Li24 P4 S20 Cl4
  positions in direct lattice
  velocities in cartesian coordinates

 ion  position               nearest neighbor table
   1  0.976  0.340  0.283-
   2  0.976  0.840  0.783-
   3  0.021  0.310  0.709-
   4  0.021  0.810  0.209-
   5  0.180  0.167  0.958-
   6  0.211  0.803  0.011-
   7  0.829  0.160  0.039-
   8  0.792  0.792  0.986-
   9  0.292  0.987  0.290-
  10  0.329  0.041  0.659-
  11  0.680  0.960  0.665-
  12  0.711  0.013  0.302-
  13  0.180  0.667  0.458-
  14  0.211  0.303  0.511-
  15  0.829  0.660  0.539-
  16  0.792  0.292  0.486-
  17  0.292  0.487  0.790-
  18  0.329  0.541  0.159-
  19  0.680  0.460  0.165-
  20  0.711  0.513  0.802-
  21  0.476  0.284  0.838-
  22  0.476  0.784  0.338-
  23  0.521  0.211  0.308-
  24  0.521  0.711  0.808-
  25  0.506  0.500  0.498-  41 2.05  42 2.05  43 2.05  44 2.06
  26  0.506  1.000  0.998-  37 2.05  38 2.05  39 2.05  40 2.06
  27  0.006  0.500  0.998-  36 2.05  35 2.05  33 2.05  34 2.06
  28  0.006  1.000  0.498-  29 2.05  30 2.05  32 2.05  31 2.06
  29  0.144  0.879  0.604-  28 2.05
  30  0.108  0.129  0.363-  28 2.05
  31  0.877  0.864  0.395-  28 2.06
  32  0.885  0.111  0.634-  28 2.05
  33  0.885  0.611  0.134-  27 2.05
  34  0.877  0.364  0.895-  27 2.06
  35  0.108  0.629  0.863-  27 2.05
  36  0.144  0.379  0.104-  27 2.05
  37  0.644  0.106  0.877-  26 2.05
  38  0.608  0.865  0.127-  26 2.05
  39  0.385  0.136  0.109-  26 2.05
  40  0.377  0.897  0.862-  26 2.06
  41  0.644  0.606  0.377-  25 2.05
  42  0.608  0.365  0.627-  25 2.05
  43  0.385  0.636  0.609-  25 2.05
  44  0.377  0.397  0.362-  25 2.06
  45  0.753  0.744  0.754-
  46  0.753  0.244  0.254-
  47  0.253  0.755  0.242-
  48  0.253  0.255  0.742-
  49  0.001  0.968  0.004-
  50  0.001  0.468  0.504-
  51  0.501  0.006  0.466-
  52  0.501  0.506  0.966-

  LATTYP: Found a simple cubic cell.
 ALAT       =     9.6367117662

  Lattice vectors:

 A1 = (   9.6367117662,   0.0000000000,   0.0000000000)
 A2 = (   0.0000000000,   9.6367117662,   0.0000000000)
 A3 = (   0.0000000000,   0.0000000000,   9.6367117662)

Analysis of symmetry for initial positions (statically):
 Subroutine PRICEL returns following result:

  LATTYP: Found a simple tetragonal cell.
 ALAT       =     6.8141796529
 C/A-ratio  =     1.4142145140

[...]

   2 primitive cells build up your supercell.

 Routine SETGRP: Setting up the symmetry group for a
 simple cubic supercell.

 Subroutine GETGRP returns: Found  1 space group operations
 (whereof  1 operations were pure point group operations)
 out of a pool of 48 trial point group operations.

The static configuration has the point symmetry C_1 .

Analysis of symmetry for dynamics (positions and initial velocities):
 Subroutine PRICEL returns following result:

[...]

The dynamic configuration has the point symmetry C_1 .

Analysis of structural, dynamic, and magnetic symmetry:
 Subroutine PRICEL returns following result:

  LATTYP: Found a simple tetragonal cell.
 ALAT       =     6.8141796529
 C/A-ratio  =     1.4142145140

  Lattice vectors:

 A1 = (   0.0000000000,   4.8183543997,  -4.8183508818)
 A2 = (   0.0000000000,   4.8183543997,   4.8183608844)
 A3 = (   9.6367117662,   0.0000000000,   0.0000000000)

   2 primitive cells build up your supercell.

 Routine SETGRP: Setting up the symmetry group for a
 simple cubic supercell.

 Subroutine GETGRP returns: Found  1 space group operations
 (whereof  1 operations were pure point group operations)
 out of a pool of 48 trial point group operations.

The overall configuration has the point symmetry C_1 .

 Subroutine INISYM returns: Found  1 space group operations
 (whereof  1 operations are pure point group operations),
 and found     2 'primitive' translations

                                     Primitive cell

  volume of cell :     447.4623

  direct lattice vectors                    reciprocal lattice vectors
     0.000000000  4.818354400 -4.818350882     0.000000000  0.103769976 -0.103769836
     0.000000000  4.818354400  4.818360884     0.000000000  0.103769760  0.103769836
     9.636711766  0.000000000  0.000000000     0.103769836  0.000000000  0.000000000

  length of vectors
     6.814179653  6.814186726  9.636711766     0.146752808  0.146752656  0.103769836

  position of ions in fractional coordinates (direct lattice)
     0.056890395  0.622393105  0.976312736
     0.600946008  0.018777164  0.021261729
     0.209097009  0.125078619  0.180198839
     0.792275430  0.814698194  0.211275235
     0.121003404  0.199820228  0.829344112
     0.806127455  0.777613007  0.792231713
     0.697154913  0.277591069  0.292261471
     0.382261693  0.699769212  0.329270312
     0.294140237  0.625092880  0.680186427
     0.710984581  0.314703277  0.711213805
     0.446425177  0.122347683  0.476314176
     0.902305595  0.518834845  0.521234942
     0.001509597  0.998022779  0.505542917
     0.501918454  0.497990247  0.005503195
     0.274629884  0.482658457  0.144067525
     0.765700008  0.492449001  0.107966545
     0.468994019  0.259258622  0.876624674
     0.476713359  0.745494832  0.885371705
     0.228724344  0.982704113  0.644137809
     0.737664147  0.992455876  0.607947217
     0.026637114  0.245525823  0.385397268
     0.034364780  0.759294134  0.376648826
     0.990163159  0.497331068  0.752923603
     0.513099344  0.997310737  0.252933981
     0.963852636  0.971885623  0.001022558
     0.539410894  0.471823164  0.500907310

  ion indices of the primitive-cell ions
   primitive index   ion index
                 1           1
                 2           3
                 3           5
                 4          14
                 5           7
                 6          16
                 7           9
                 8          18
                 9          19
                10          12
                11          22
                12          23
                13          25
                14          27
                15          36
                16          30
                17          34
                18          33
                19          41
                20          42
                21          39
                22          44
                23          46
                24          47
                25          50
                26          52

 KPOINTS: Automatic mesh

Automatic generation of k-mesh.
 Grid dimensions read from file:
 generate k-points for:    2    2    2

[...]
     17     -42.2146      1.00000
     18     -42.2145      1.00000
     19     -42.2142      1.00000
     20     -42.2141      1.00000
     21     -42.1988      1.00000
     22     -42.1988      1.00000
     23     -42.1984      1.00000
     24     -42.1984      1.00000
     25     -12.9646      1.00000
     26     -12.9193      1.00000
     27     -12.9175      1.00000
     28     -12.9170      1.00000
     29     -12.6152      1.00000
     30     -12.6151      1.00000
     31     -12.6148      1.00000
     32     -12.6026      1.00000
     33     -10.2013      1.00000
     34     -10.1924      1.00000
     35     -10.1610      1.00000
     36     -10.0448      1.00000
     37      -9.9754      1.00000
     38      -9.9533      1.00000
     39      -9.9521      1.00000
     40      -9.9053      1.00000
     41      -9.8714      1.00000
     42      -9.8563      1.00000
     43      -9.8271      1.00000
     44      -9.8150      1.00000
     45      -8.2274      1.00000
     46      -8.2241      1.00000
     47      -8.2235      1.00000
     48      -8.2181      1.00000
     49      -6.0579      1.00000
     50      -5.6033      1.00000
     51      -5.5808      1.00000
     52      -5.5642      1.00000
     53      -3.1478      1.00000
     54      -3.1420      1.00000
     55      -3.1098      1.00000
     56      -2.7878      1.00000
     57      -2.6268      1.00000
     58      -2.6025      1.00000
     59      -2.5049      1.00000
     60      -2.4407      1.00000
[...]
    162       9.1697      0.00000
    163       9.1969      0.00000
    164       9.2981      0.00000
    165       9.3082      0.00000
    166       9.3972      0.00000
    167       9.4590      0.00000
    168       9.5210      0.00000
    169       9.5607      0.00000
    170       9.5862      0.00000
    171       9.6556      0.00000
    172       9.7446      0.00000
    173       9.7673      0.00000
    174       9.7835      0.00000
    175       9.8842      0.00000
    176       9.9775      0.00000

[...]

 soft charge-density along one line, spin component           2
         0         1         2         3         4         5         6         7         8         9
 total charge-density along one line

------------------------ aborting loop because EDIFF is reached ----------------------------------------

         DFTD3 V3.0 Rev 1
 Edisp (eV)  -13.68963

 E6    (eV) :    -8.4329
 E8    (eV) :    -5.2567
 % E8        : 38.40

  FORCE on cell =-STRESS in cart. coord.  units (eV):
  Direction    XX          YY          ZZ          XY          YZ          ZX
  Alpha Z   303.32991   303.32991   303.32991
  Ewald   -2916.70255 -2976.80810 -2976.98442   -53.84949   -12.29751   -53.90659
  Hartree   748.44375   712.57820   712.48595   -20.14896     1.97241   -20.11398
  E(xc)    -947.81424  -947.83360  -947.83403    -0.13238    -0.05316    -0.13270
  Local   -1539.67159 -1447.49436 -1447.23801    69.90128     5.82169    69.88621
  n-local  1481.39772  1481.69565  1481.66943    -0.66828     0.02670    -0.69680
  augment  -356.97899  -356.87219  -356.87782    -0.08739    -0.27188    -0.09090
  Kinetic  3244.86135  3244.66036  3244.67226     2.77409     5.89327     2.82729
  Fock        0.00000     0.00000     0.00000     0.00000     0.00000     0.00000
  vdW       -14.41144   -14.48416   -14.48415    -0.00760    -0.00109    -0.00760
  Total       2.45392    -1.22829    -1.26088    -2.21873     1.09043    -2.23508
  in kB       4.39324    -2.19899    -2.25734    -3.97217     1.95218    -4.00145

 VOLUME and BASIS-vectors are now :
  energy-cutoff  :      520.00
  volume of cell :      894.92
      direct lattice vectors                 reciprocal lattice vectors
     9.636711766  0.000000000  0.000000000     0.103769836  0.000000000  0.000000000
     0.000000000  9.636711766  0.000000000     0.000000000  0.103769836  0.000000000
     0.000000000  0.000000000  9.636711766     0.000000000  0.000000000  0.103769836

  length of vectors
     9.636711766  9.636711766  9.636711766     0.103769836  0.103769836  0.103769836

 FORCES acting on ions
    electron-ion (+dipol)            ewald-force                    non-local-force                 convergence-correction
   -.300E+01 -.613E+01 0.305E+01   0.242E+01 0.502E+01 -.375E+01   0.571E+00 0.111E+01 0.697E+00   -.253E-04 -.356E-04 0.188E-04
   -.300E+01 -.612E+01 0.305E+01   0.242E+01 0.502E+01 -.375E+01   0.571E+00 0.111E+01 0.697E+00   -.254E-04 -.357E-04 0.187E-04
   0.369E+01 -.287E+01 -.307E+01   -.294E+01 0.195E+01 0.426E+01   -.748E+00 0.919E+00 -.119E+01   -.613E-04 0.384E-04 0.145E-04
   0.369E+01 -.287E+01 -.307E+01   -.294E+01 0.195E+01 0.426E+01   -.748E+00 0.919E+00 -.119E+01   -.613E-04 0.383E-04 0.145E-04
   0.154E+02 0.123E+02 -.176E+01   -.139E+02 -.107E+02 0.761E+00   -.143E+01 -.160E+01 0.997E+00   -.534E-04 0.105E-04 0.177E-05
   -.519E+01 -.882E+00 0.310E+01   0.627E+01 0.200E+00 -.245E+01   -.109E+01 0.684E+00 -.650E+00   -.910E-04 -.610E-04 0.662E-04
   -.114E+02 0.658E+01 -.121E+01   0.999E+01 -.537E+01 0.191E+01   0.142E+01 -.121E+01 -.704E+00   -.578E-04 -.249E-04 -.233E-04
   0.178E+01 -.343E+01 -.480E+01   -.297E+01 0.241E+01 0.394E+01   0.119E+01 0.102E+01 0.855E+00   0.123E-04 -.122E-04 0.244E-04
   0.180E+01 -.480E+01 -.339E+01   -.299E+01 0.394E+01 0.237E+01   0.119E+01 0.856E+00 0.102E+01   0.425E-04 -.372E-04 -.224E-06
   -.114E+02 -.121E+01 0.657E+01   0.999E+01 0.191E+01 -.536E+01   0.142E+01 -.703E+00 -.121E+01   0.229E-04 0.747E-04 -.473E-04
   0.154E+02 -.177E+01 0.123E+02   -.139E+02 0.771E+00 -.107E+02   -.143E+01 0.998E+00 -.160E+01   0.348E-04 0.780E-04 0.279E-04
   -.517E+01 0.309E+01 -.903E+00   0.626E+01 -.244E+01 0.219E+00   -.109E+01 -.648E+00 0.685E+00   -.315E-04 -.135E-04 -.586E-04
   0.154E+02 0.123E+02 -.176E+01   -.139E+02 -.107E+02 0.760E+00   -.143E+01 -.160E+01 0.997E+00   -.534E-04 0.107E-04 0.175E-05
   -.519E+01 -.882E+00 0.310E+01   0.627E+01 0.200E+00 -.245E+01   -.109E+01 0.684E+00 -.650E+00   -.911E-04 -.610E-04 0.661E-04
   -.114E+02 0.658E+01 -.121E+01   0.999E+01 -.537E+01 0.191E+01   0.142E+01 -.121E+01 -.704E+00   -.578E-04 -.248E-04 -.232E-04
   0.178E+01 -.343E+01 -.480E+01   -.297E+01 0.241E+01 0.394E+01   0.119E+01 0.102E+01 0.855E+00   0.124E-04 -.123E-04 0.246E-04
   0.180E+01 -.480E+01 -.339E+01   -.299E+01 0.394E+01 0.237E+01   0.119E+01 0.856E+00 0.102E+01   0.425E-04 -.370E-04 -.173E-06
   -.114E+02 -.121E+01 0.657E+01   0.999E+01 0.191E+01 -.536E+01   0.142E+01 -.703E+00 -.121E+01   0.228E-04 0.749E-04 -.473E-04
   0.154E+02 -.177E+01 0.123E+02   -.139E+02 0.772E+00 -.107E+02   -.143E+01 0.998E+00 -.160E+01   0.348E-04 0.782E-04 0.277E-04
   -.517E+01 0.309E+01 -.903E+00   0.626E+01 -.244E+01 0.219E+00   -.109E+01 -.648E+00 0.685E+00   -.316E-04 -.133E-04 -.585E-04
   -.302E+01 0.307E+01 -.609E+01   0.245E+01 -.377E+01 0.499E+01   0.573E+00 0.696E+00 0.111E+01   0.154E-03 0.159E-05 -.854E-04
   -.302E+01 0.307E+01 -.609E+01   0.245E+01 -.377E+01 0.499E+01   0.573E+00 0.696E+00 0.111E+01   0.154E-03 0.149E-05 -.853E-04
   0.367E+01 -.306E+01 -.289E+01   -.292E+01 0.425E+01 0.197E+01   -.748E+00 -.119E+01 0.920E+00   0.118E-03 -.253E-04 0.765E-04
   0.367E+01 -.306E+01 -.289E+01   -.292E+01 0.425E+01 0.197E+01   -.748E+00 -.119E+01 0.920E+00   0.118E-03 -.253E-04 0.764E-04
   -.184E+01 0.160E+01 -.208E+01   0.196E+01 -.137E+01 0.192E+01   -.126E+00 -.226E+00 0.156E+00   0.149E-03 -.107E-03 0.678E-04
   -.184E+01 0.160E+01 -.209E+01   0.196E+01 -.137E+01 0.192E+01   -.126E+00 -.226E+00 0.156E+00   0.149E-03 -.107E-03 0.676E-04
   -.181E+01 -.210E+01 0.161E+01   0.193E+01 0.193E+01 -.138E+01   -.127E+00 0.160E+00 -.228E+00   -.733E-04 0.668E-04 -.843E-04
   -.181E+01 -.210E+01 0.161E+01   0.194E+01 0.193E+01 -.138E+01   -.127E+00 0.160E+00 -.228E+00   -.734E-04 0.664E-04 -.842E-04
   -.484E+02 0.419E+02 -.346E+02   0.519E+02 -.449E+02 0.369E+02   -.345E+01 0.295E+01 -.231E+01   -.116E-03 -.379E-04 -.639E-04
   -.258E+02 -.315E+02 0.582E+02   0.281E+02 0.344E+02 -.625E+02   -.236E+01 -.289E+01 0.427E+01   -.241E-03 0.128E-04 0.221E-04
   0.414E+02 0.471E+02 0.261E+02   -.447E+02 -.506E+02 -.282E+02   0.327E+01 0.344E+01 0.211E+01   -.730E-04 0.439E-04 -.392E-04
   0.378E+02 -.242E+02 -.577E+02   -.406E+02 0.261E+02 0.618E+02   0.284E+01 -.194E+01 -.409E+01   -.117E-03 0.137E-03 -.964E-04
   0.378E+02 -.242E+02 -.577E+02   -.406E+02 0.261E+02 0.618E+02   0.284E+01 -.194E+01 -.409E+01   -.117E-03 0.137E-03 -.963E-04
   0.414E+02 0.471E+02 0.261E+02   -.447E+02 -.506E+02 -.282E+02   0.327E+01 0.344E+01 0.211E+01   -.733E-04 0.439E-04 -.396E-04
   -.258E+02 -.315E+02 0.582E+02   0.281E+02 0.344E+02 -.625E+02   -.236E+01 -.289E+01 0.427E+01   -.241E-03 0.132E-04 0.220E-04
   -.484E+02 0.419E+02 -.346E+02   0.519E+02 -.449E+02 0.369E+02   -.345E+01 0.295E+01 -.231E+01   -.115E-03 -.375E-04 -.636E-04
   -.485E+02 -.346E+02 0.419E+02   0.519E+02 0.369E+02 -.449E+02   -.345E+01 -.231E+01 0.295E+01   0.218E-03 0.688E-04 -.162E-03
   -.258E+02 0.582E+02 -.315E+02   0.281E+02 -.625E+02 0.344E+02   -.236E+01 0.427E+01 -.289E+01   0.153E-04 -.683E-04 0.103E-03
   0.378E+02 -.577E+02 -.242E+02   -.406E+02 0.618E+02 0.262E+02   0.284E+01 -.409E+01 -.195E+01   0.125E-03 -.197E-03 0.689E-04
   0.414E+02 0.261E+02 0.471E+02   -.447E+02 -.282E+02 -.506E+02   0.327E+01 0.211E+01 0.344E+01   0.216E-03 0.590E-04 0.197E-03
   -.485E+02 -.346E+02 0.419E+02   0.519E+02 0.369E+02 -.449E+02   -.345E+01 -.231E+01 0.295E+01   0.218E-03 0.691E-04 -.161E-03
   -.258E+02 0.582E+02 -.315E+02   0.281E+02 -.625E+02 0.344E+02   -.236E+01 0.427E+01 -.289E+01   0.150E-04 -.681E-04 0.103E-03
   0.378E+02 -.577E+02 -.242E+02   -.406E+02 0.618E+02 0.262E+02   0.284E+01 -.409E+01 -.195E+01   0.125E-03 -.196E-03 0.690E-04
   0.414E+02 0.261E+02 0.471E+02   -.447E+02 -.282E+02 -.506E+02   0.327E+01 0.211E+01 0.344E+01   0.216E-03 0.593E-04 0.197E-03
   -.232E+01 -.217E+01 0.157E+02   0.243E+01 0.230E+01 -.160E+02   -.105E+00 -.131E+00 0.320E+00   0.745E-04 -.604E-04 0.131E-03
   -.232E+01 -.217E+01 0.157E+02   0.243E+01 0.230E+01 -.160E+02   -.105E+00 -.131E+00 0.320E+00   0.745E-04 -.602E-04 0.130E-03
   -.232E+01 0.157E+02 -.216E+01   0.242E+01 -.160E+02 0.230E+01   -.105E+00 0.320E+00 -.133E+00   0.518E-04 0.164E-03 -.725E-04
   -.232E+01 0.157E+02 -.216E+01   0.242E+01 -.160E+02 0.230E+01   -.105E+00 0.320E+00 -.133E+00   0.518E-04 0.164E-03 -.724E-04
   -.192E+01 -.395E+02 -.162E+01   0.195E+01 0.401E+02 0.171E+01   -.300E-01 -.598E+00 -.949E-01   -.180E-03 -.206E-03 0.959E-04
   -.192E+01 -.395E+02 -.162E+01   0.195E+01 0.401E+02 0.171E+01   -.300E-01 -.598E+00 -.949E-01   -.180E-03 -.205E-03 0.960E-04
   -.203E+01 -.166E+01 -.396E+02   0.206E+01 0.175E+01 0.402E+02   -.294E-01 -.934E-01 -.600E+00   0.150E-03 0.643E-04 -.224E-03
   -.203E+01 -.166E+01 -.396E+02   0.206E+01 0.175E+01 0.402E+02   -.294E-01 -.934E-01 -.600E+00   0.150E-03 0.647E-04 -.224E-03
   0.165E+00 -.381E+01 -.378E+01   -.533E-14 0.915E-13 -.185E-12   -.163E+00 0.381E+01 0.375E+01   0.525E-03 -.127E-03 -.826E-04

 POSITION                                       TOTAL-FORCE (eV/Angst)
      9.40842      3.27316      2.72475        -0.000152      0.000734     -0.000192
      9.40840      8.09154      7.54310        -0.000152      0.000734     -0.000192
      0.20489      2.98609      6.83165         0.000003      0.000275      0.000198
      0.20491      7.80449      2.01326         0.000003      0.000275      0.000198
      1.73655      1.61011      9.23188         0.000095     -0.000314     -0.000026
      2.03598      7.74290      0.10799        -0.000157     -0.000269     -0.000106
      7.99219      1.54584      0.37978         0.000167     -0.000008      0.000099
      7.63453      7.63097      9.49933         0.000101     -0.000042      0.000101
      2.81645      9.51505      2.79675         0.000040      0.000140     -0.000048
      3.17310      0.39526      6.34822         0.000105      0.000061     -0.000010
      6.55474      9.24753      6.41294         0.000010     -0.000059     -0.000349
      6.85373      0.12376      2.90888        -0.000190     -0.000039     -0.000265
      1.73656      6.42848      4.41350         0.000095     -0.000314     -0.000026
      2.03597      2.92456      4.92638        -0.000157     -0.000269     -0.000106
      7.99221      6.36421      5.19812         0.000167     -0.000008      0.000099
      7.63454      2.81266      4.68099         0.000101     -0.000042      0.000101
      2.81643      4.69669      7.61509         0.000040      0.000140     -0.000048
      3.17311      5.21361      1.52986         0.000105      0.000061     -0.000010
      6.55477      4.42918      1.59458         0.000010     -0.000059     -0.000349
      6.85373      4.94210      7.72720        -0.000190     -0.000039     -0.000265
      4.59005      2.74051      8.07538        -0.000158     -0.000206      0.000679
      4.59008      7.55886      3.25697        -0.000158     -0.000206      0.000679
      5.02299      2.02923      2.97070         0.000003      0.000168      0.000244
      5.02299      6.84757      7.78905         0.000003      0.000168      0.000244
      4.87173      4.81608      4.80155         0.000269     -0.000609     -0.000007
      4.87174      9.63443      9.61990         0.000269     -0.000609     -0.000007
      0.05304      4.81791      9.61778         0.000038      0.000128     -0.000167
      0.05304      9.63626      4.79941         0.000038      0.000128     -0.000167
      1.38844      8.46717      5.82071        -0.000187      0.000223     -0.000343
      1.04043      1.24393      3.50160        -0.000329     -0.000170     -0.000024
      8.44770      8.32729      3.80773         0.000003      0.000241      0.000245
      8.53204      1.07072      6.11354         0.000336     -0.000170     -0.000018
      8.53206      5.88908      1.29520         0.000336     -0.000170     -0.000018
      8.44767      3.50893      8.62611         0.000003      0.000241      0.000245
      1.04041      6.06228      8.31994        -0.000329     -0.000170     -0.000024
      1.38844      3.64882      1.00235        -0.000187      0.000223     -0.000343
      6.20747      1.01874      8.45124        -0.000056     -0.000223      0.000056
      5.85865      8.33623      1.22774        -0.000293     -0.000075     -0.000122
      3.71396      1.31149      1.05474         0.000384     -0.000153     -0.000277
      3.62958      8.64245      8.31126         0.000077      0.000315      0.000332
      6.20748      5.83708      3.63290        -0.000056     -0.000223      0.000056
      5.85862      3.51785      6.04610        -0.000293     -0.000075     -0.000122
      3.71395      6.12984      5.87309         0.000384     -0.000153     -0.000277
      3.62956      3.82410      3.49290         0.000077      0.000315      0.000332
      7.25571      7.16727      7.26205        -0.000039      0.000011      0.000041
      7.25572      2.34892      2.44371        -0.000039      0.000011      0.000041
      2.43746      7.27769      2.33311        -0.000036      0.000037     -0.000006
      2.43744      2.45932      7.15149        -0.000036      0.000037     -0.000006
      0.00988      9.32714      0.03870        -0.000012     -0.000011     -0.000003
      0.00987      4.50877      4.85708        -0.000012     -0.000011     -0.000003
      4.82710      0.05411      4.49274        -0.000023      0.000016     -0.000031
      4.82710      4.87248      9.31111        -0.000023      0.000016     -0.000031
    total drift:                                0.002241     -0.003690     -0.024827

  FREE ENERGIE OF THE ION-ELECTRON SYSTEM (eV)
  free  energy   TOTEN  =      -272.55395805 eV

  energy  without entropy=     -272.55395805  energy(sigma->0) =     -272.55395805

 d Force = 0.5224650E-06[ 0.324E-06, 0.721E-06]  d Energy = 0.7534485E-06-0.231E-06
 d Force = 0.4617273E-02[ 0.462E-02, 0.462E-02]  d Ewald  = 0.4617273E-02 0.218E-10

 stress matrix after NEB project (eV)
      2.45392     -2.21873     -2.23508
     -2.21873     -1.22829      1.09043
     -2.23508      1.09043     -1.26088
  FORCES: max atom, RMS     0.000774    0.000372
  FORCE total and by dimension    0.002684    0.000734
  Stress total and by dimension    5.597768    2.453924
 Conjugate gradient step on ions:
 trial-energy change:   -0.000001  1 .order   -0.000001   -0.000001   -0.000000
  (g-gl).g = 0.562E-06      g.g   = 0.527E-06  gl.gl    = 0.179E-05
 g(Force)  = 0.527E-06   g(Stress)= 0.000E+00 ortho     =-0.344E-07
 gamma     =   0.31341
 trial     =   1.39464
 opt step  =   2.53601  (harmonic =   2.53601) maximal distance =0.00008283
 next E    =  -272.553958   (d E  =  -0.00000)

 reached required accuracy - stopping structural energy minimisation