 vasp.6.4.1 05Apr23 (build Jun 07 2023 15:38:11) complex

 executed on             LinuxIFC date 2023.10.19  05:11:46

 INCAR:
   GGA = PE
   PREC = Accu
   EDIFF = 1.e-6
   EDIFFG = -1.e-3
   ENCUT = 520.
   NELM = 100
   NELMDL = -10
   LASPH = .TRUE.
   LREAL = Auto
   LMAXMIX = 4
   ISPIN = 2
   LDIAG = .TRUE.
   LPLANE = .TRUE.
   IVDW = 12
   SIGMA = 0.03
   ISMEAR = 0
   NSW = 1000    number of steps for IOM
   IBRION = 2    ionic relax: 0-MD 1-quasi-New 2-CG
   ISIF = 2    ionic relaxation + stress tensor calcn.
   LCHARG = .FALSE.
   LWAVE = .FALSE.
   ALGO = F
   KPAR = 1
   NPAR = 4
   POTIM = 0.2

 POTCAR:    PAW_PBE Li_sv_GW 25Mar2010
 POTCAR:    PAW_PBE P_GW 19Mar2012
 POTCAR:    PAW_PBE S_GW 19Mar2012
 POTCAR:    PAW_PBE Cl_GW 19Mar2012
|           W    W    AA    RRRRR   N    N  II  N    N   GGGG   !!!           |
|           W    W   A  A   R    R  NN   N  II  NN   N  G    G  !!!           |
|           W    W  A    A  R    R  N N  N  II  N N  N  G       !!!           |
|           W WW W  AAAAAA  RRRRR   N  N N  II  N  N N  G  GGG   !            |
|           WW  WW  A    A  R   R   N   NN  II  N   NN  G    G                |
|           W    W  A    A  R    R  N    N  II  N    N   GGGG   !!!           |
|     You use a magnetic or noncollinear calculation, but did not specify     |
|     the initial magnetic moment with the MAGMOM tag. Note that a            |
|     default of 1 will be used for all atoms. This ferromagnetic setup       |
|     may break the symmetry of the crystal, in particular it may rule        |
|     out finding an antiferromagnetic solution. Thence, we recommend         |
|     setting the initial magnetic moment manually or verifying carefully     |
|     that this magnetic setup is desired.                                    |

   TITEL  = PAW_PBE Li_sv_GW 25Mar2010
   POMASS =    7.010; ZVAL   =    3.000    mass and valenz
   ENMAX  =  433.699; ENMIN  =  325.274 eV

   TITEL  = PAW_PBE P_GW 19Mar2012
   POMASS =   30.974; ZVAL   =    5.000    mass and valenz
   ENMAX  =  255.040; ENMIN  =  191.280 eV

[...]

   TITEL  = PAW_PBE Cl_GW 19Mar2012
   POMASS =   35.453; ZVAL   =    7.000    mass and valenz
   ENMAX  =  262.472; ENMIN  =  196.854 eV

 Optimization of the real space projectors (new method)

 maximal supplied QI-value         = 25.13
 optimisation between [QCUT,QGAM] = [ 11.56, 23.12] = [ 37.43,149.72] Ry
 Optimized for a Real-space Cutoff    1.28 Angstroem

   l    n(q)    QCUT    max X(q) W(low)/X(q) W(high)/X(q)  e(spline)
   0      9    11.561    87.733    0.11E-03    0.32E-04    0.56E-06
   0      9    11.561    82.800    0.11E-03    0.35E-04    0.56E-06
   0      9    11.561     2.509    0.22E-03    0.42E-04    0.79E-06
   1      8    11.561    12.580    0.94E-04    0.26E-03    0.21E-06
   1      8    11.561     1.319    0.33E-04    0.15E-03    0.19E-06
   2      8    11.561     1.993    0.36E-04    0.89E-04    0.26E-06
 Optimization of the real space projectors (new method)

[...]

   l    n(q)    QCUT    max X(q) W(low)/X(q) W(high)/X(q)  e(spline)
   0     10    11.508     7.541    0.34E-04    0.13E-04    0.69E-07
   0     10    11.508     1.809    0.49E-04    0.27E-04    0.14E-06
   1     10    11.508     4.107    0.27E-05    0.41E-05    0.14E-06
   1     10    11.508     2.196    0.26E-05    0.25E-05    0.22E-06
   2      9    11.508     4.265    0.18E-03    0.11E-03    0.81E-06
   2      9    11.508     1.925    0.97E-04    0.76E-04    0.47E-06
 Optimization of the real space projectors (new method)

 maximal supplied QI-value         = 19.84
 optimisation between [QCUT,QGAM] = [ 11.51, 23.22] = [ 37.09,150.92] Ry
 Optimized for a Real-space Cutoff    1.21 Angstroem

   l    n(q)    QCUT    max X(q) W(low)/X(q) W(high)/X(q)  e(spline)
   0      8    11.508     6.761    0.57E-04    0.57E-04    0.35E-07
   0      8    11.508     1.642    0.14E-03    0.14E-03    0.91E-07
   1      8    11.508     3.519    0.20E-04    0.72E-04    0.47E-07
   1      8    11.508     2.150    0.27E-04    0.11E-03    0.89E-07
   2      7    11.508     2.976    0.19E-03    0.33E-03    0.16E-06
   2      7    11.508     1.494    0.14E-03    0.29E-03    0.14E-06
  PAW_PBE Li_sv_GW 25Mar2010            :
  PAW_PBE P_GW 19Mar2012                :
  PAW_PBE S_GW 19Mar2012                :
  PAW_PBE Cl_GW 19Mar2012               :

 POSCAR: Li24 P4 S20 Cl4
  positions in direct lattice
  velocities in cartesian coordinates
 exchange correlation table for  LEXCH =        8
   RHO(1)=    0.500       N(1)  =     2000
   RHO(2)=  100.500       N(2)  =     4000

 VTST: version 4.1, (05/19/21)

 CHAIN: initializing optimizer

 OPT: Using VASP Conjugate-Gradient optimizer
 CHAIN: Read ICHAIN            0

 POSCAR: Li24 P4 S20 Cl4
  positions in direct lattice
  velocities in cartesian coordinates

 ion  position               nearest neighbor table
   1  0.951  0.250  0.250-
   2  0.001  0.750  0.750-
   3  0.016  0.250  0.750-
   4  0.016  0.750  0.250-
   5  0.296  0.310  0.975-
   6  0.194  0.810  0.025-
   7  0.682  0.286  0.021-
   8  0.808  0.786  0.979-
   9  0.296  0.975  0.310-
  10  0.194  0.025  0.810-
  11  0.808  0.979  0.786-
  12  0.682  0.021  0.286-
  13  0.194  0.690  0.475-
  14  0.296  0.190  0.525-
  15  0.808  0.714  0.521-
  16  0.682  0.214  0.479-
  17  0.194  0.475  0.690-
  18  0.296  0.525  0.190-
  19  0.682  0.479  0.214-
  20  0.808  0.521  0.714-
  21  0.473  0.250  0.750-
  22  0.473  0.750  0.250-
  23  0.489  0.250  0.250-
  24  0.539  0.750  0.750-
  25  0.491  0.508  0.508-  43 2.05  44 2.05  42 2.06  41 2.06
  26  0.491  0.992  0.992-  40 2.05  39 2.05  38 2.06  37 2.06
  27  0.998  0.492  0.008-  36 2.05  35 2.05  34 2.06  33 2.06
  28  0.998  0.008  0.492-  30 2.05  29 2.05  31 2.06  32 2.06
  29  0.132  0.895  0.605-  28 2.05
  30  0.115  0.129  0.371-  28 2.05
  31  0.873  0.890  0.373-  28 2.06
  32  0.873  0.127  0.610-  28 2.06
  33  0.873  0.610  0.127-  27 2.06
  34  0.873  0.373  0.890-  27 2.06
  35  0.132  0.605  0.895-  27 2.05
  36  0.115  0.371  0.129-  27 2.05
  37  0.617  0.110  0.873-  26 2.06
  38  0.617  0.873  0.110-  26 2.06
  39  0.358  0.105  0.105-  26 2.05
  40  0.375  0.871  0.871-  26 2.05
  41  0.617  0.627  0.391-  25 2.06
  42  0.617  0.391  0.627-  25 2.06
  43  0.375  0.629  0.629-  25 2.05
  44  0.358  0.395  0.395-  25 2.05
  45  0.767  0.750  0.750-
  46  0.723  0.250  0.250-
  47  0.245  0.750  0.250-
  48  0.245  0.250  0.750-
  49  0.001  0.953  0.953-
  50  0.001  0.547  0.547-
  51  0.489  0.047  0.453-
  52  0.489  0.453  0.047-

  LATTYP: Found a simple cubic cell.
 ALAT       =     9.8603047208

  Lattice vectors:

 A1 = (   9.8603047208,   0.0000000000,   0.0000000000)
 A2 = (   0.0000000000,   9.8603047208,   0.0000000000)
 A3 = (   0.0000000000,   0.0000000000,   9.8603047208)

Analysis of symmetry for initial positions (statically):
 Subroutine PRICEL returns:
 Original cell was already a primitive cell.

 Routine SETGRP: Setting up the symmetry group for a
 simple cubic supercell.

 Subroutine GETGRP returns: Found  4 space group operations
 (whereof  2 operations were pure point group operations)
 out of a pool of 48 trial point group operations.

The static configuration has the point symmetry C_1h.
 The point group associated with its full space group is C_2v.

Analysis of symmetry for dynamics (positions and initial velocities):
 Subroutine PRICEL returns:
 Original cell was already a primitive cell.

[...]

The dynamic configuration has the point symmetry C_1h.
 The point group associated with its full space group is C_2v.

Analysis of structural, dynamic, and magnetic symmetry:
 Subroutine PRICEL returns:
 Original cell was already a primitive cell.

 Routine SETGRP: Setting up the symmetry group for a
 simple cubic supercell.

 Subroutine GETGRP returns: Found  4 space group operations
 (whereof  2 operations were pure point group operations)
 out of a pool of 48 trial point group operations.

The overall configuration has the point symmetry C_1h.
 The point group associated with its full space group is C_2v.

 Subroutine INISYM returns: Found  4 space group operations
 (whereof  2 operations are pure point group operations),
 and found     1 'primitive' translations

                                     Primitive cell

  volume of cell :     958.6741

  direct lattice vectors                    reciprocal lattice vectors
     9.860304721  0.000000000  0.000000000     0.101416744  0.000000000  0.000000000
     0.000000000  9.860304721  0.000000000     0.000000000  0.101416744  0.000000000
     0.000000000  0.000000000  9.860304721     0.000000000  0.000000000  0.101416744

  length of vectors
     9.860304721  9.860304721  9.860304721     0.101416744  0.101416744  0.101416744

  position of ions in fractional coordinates (direct lattice)
     0.951105539  0.250067203  0.250067203
     0.000644745  0.750067203  0.750067203
     0.016471990  0.250067203  0.750067203
     0.016471990  0.750067203  0.250067203
     0.295762811  0.310381899  0.974665118
     0.193978688  0.810340523  0.025468508
     0.682251962  0.286163369  0.020989197
     0.807501520  0.786222891  0.979163803
     0.295762811  0.974665118  0.310381899
     0.193978688  0.025468508  0.810340523
     0.807501520  0.979163803  0.786222891
     0.682251962  0.020989197  0.286163369
     0.193978688  0.689793883  0.474665898
     0.295762811  0.189752507  0.525469288
     0.807501520  0.713911515  0.520970603
     0.682251962  0.213971037  0.479145209
     0.193978688  0.474665898  0.689793883
     0.295762811  0.525469288  0.189752507
     0.682251962  0.479145209  0.213971037
     0.807501520  0.520970603  0.713911515
     0.473337665  0.250067203  0.750067203
     0.473337665  0.750067203  0.250067203
     0.489108018  0.250067203  0.250067203
     0.538642312  0.750067203  0.750067203
     0.491274607  0.508019821  0.508019821
     0.491274607  0.992114585  0.992114585
     0.998291008  0.492093396  0.008041010
     0.998291008  0.008041010  0.492093396
     0.131809340  0.895264997  0.604869410
     0.115161939  0.129255743  0.370878663
     0.872888138  0.890499275  0.373030764
     0.872888138  0.127103642  0.609635131
     0.872888138  0.609635131  0.127103642
     0.872888138  0.373030764  0.890499275
     0.131809340  0.604869410  0.895264997
     0.115161939  0.370878663  0.129255743
     0.616773074  0.109610750  0.873071645
     0.616773074  0.873071645  0.109610750
     0.357798512  0.104895133  0.104895133
     0.374514876  0.870862222  0.870862222
     0.616773074  0.627062761  0.390523656
     0.616773074  0.390523656  0.627062761
     0.374514876  0.629272184  0.629272184
     0.357798512  0.395239274  0.395239274
     0.766965130  0.750067203  0.750067203
     0.722807948  0.250067203  0.250067203
     0.244897978  0.750067203  0.250067203
     0.244897978  0.250067203  0.750067203
     0.000735677  0.953366882  0.953366882
     0.000735677  0.546767524  0.546767524
     0.489045052  0.046847986  0.453286420
     0.489045052  0.453286420  0.046847986

  ion indices of the primitive-cell ions
   primitive index   ion index
                 1           1
                 2           2
[...]
     17     -42.7908      1.00000
     18     -42.7905      1.00000
     19     -42.7897      1.00000
     20     -42.7893      1.00000
     21     -42.7791      1.00000
     22     -42.7778      1.00000
     23     -42.7259      1.00000
     24     -42.7241      1.00000
     25     -13.5244      1.00000
     26     -13.4997      1.00000
     27     -13.4965      1.00000
     28     -13.4944      1.00000
     29     -12.5990      1.00000
     30     -12.5985      1.00000
     31     -12.5974      1.00000
     32     -12.5948      1.00000
     33     -10.7738      1.00000
     34     -10.7150      1.00000
     35     -10.7001      1.00000
     36     -10.6437      1.00000
     37     -10.5867      1.00000
     38     -10.5631      1.00000
     39     -10.5203      1.00000
     40     -10.4968      1.00000
     41     -10.4867      1.00000
     42     -10.4725      1.00000
     43     -10.4224      1.00000
     44     -10.4038      1.00000
     45      -8.9825      1.00000
     46      -8.9777      1.00000
     47      -8.8380      1.00000
     48      -8.8346      1.00000
     49      -6.5979      1.00000
     50      -6.2583      1.00000
     51      -6.2290      1.00000
     52      -6.1839      1.00000
     53      -3.7041      1.00000
     54      -3.6329      1.00000
     55      -3.6313      1.00000
     56      -3.3499      1.00000
     57      -3.1918      1.00000
     58      -3.1802      1.00000
     59      -3.0769      1.00000
     60      -3.0542      1.00000
[...]
    162       8.6164      0.00000
    163       8.6772      0.00000
    164       8.7128      0.00000
    165       8.7988      0.00000
    166       8.8057      0.00000
    167       8.8720      0.00000
    168       8.8743      0.00000
    169       9.0198      0.00000
    170       9.0249      0.00000
    171       9.0672      0.00000
    172       9.0819      0.00000
    173       9.1950      0.00000
    174       9.2452      0.00000
    175       9.2564      0.00000
    176       9.3096      0.00000

[...]

 soft charge-density along one line, spin component           2
         0         1         2         3         4         5         6         7         8         9
 total charge-density along one line

------------------------ aborting loop because EDIFF is reached ----------------------------------------

         DFTD3 V3.0 Rev 1
 Edisp (eV)  -12.69655

 E6    (eV) :    -7.8314
 E8    (eV) :    -4.8651
 % E8        : 38.32

  FORCE on cell =-STRESS in cart. coord.  units (eV):
  Direction    XX          YY          ZZ          XY          YZ          ZX
  Alpha Z   283.15931   283.15931   283.15931
  Ewald   -2523.44528 -2925.63252 -2925.63252     0.00000     0.00455     0.00000
  Hartree   958.77152   783.99573   783.99573     0.00000    -0.06961     0.00000
  E(xc)    -946.86248  -947.88961  -947.88961    -0.00000     0.00008    -0.00000
  Local   -2106.65180 -1557.66626 -1557.66626    -0.00000     0.10800    -0.00000
  n-local  1482.86572  1479.52481  1479.52482    -0.84151     0.00067     0.00106
  augment  -355.21180  -357.11471  -357.11471    -0.00001     0.00352    -0.00001
  Kinetic  3216.33023  3257.15491  3257.15491    -1.32630    -0.06813    -0.00011
  Fock        0.00000     0.00000     0.00000     0.00000     0.00000     0.00000
  vdW       -13.39725   -13.48295   -13.48295    -0.00000     0.00004     0.00000
  Total      -4.44184     2.04871     2.04871     0.00000    -0.02088    -0.00000
  in kB      -7.42339     3.42390     3.42390     0.00000    -0.03489    -0.00000

 VOLUME and BASIS-vectors are now :
  energy-cutoff  :      520.00
  volume of cell :      958.67
      direct lattice vectors                 reciprocal lattice vectors
     9.860304721  0.000000000  0.000000000     0.101416744  0.000000000  0.000000000
     0.000000000  9.860304721  0.000000000     0.000000000  0.101416744  0.000000000
     0.000000000  0.000000000  9.860304721     0.000000000  0.000000000  0.101416744

  length of vectors
     9.860304721  9.860304721  9.860304721     0.101416744  0.101416744  0.101416744

 FORCES acting on ions
    electron-ion (+dipol)            ewald-force                    non-local-force                 convergence-correction
   0.725E+00 -.118E-05 -.354E-05   -.137E+01 0.683E-11 -.602E-11   0.635E+00 0.424E-21 0.000E+00   0.420E-04 0.425E-09 0.422E-09
   -.789E+01 -.105E-05 -.276E-05   0.675E+01 0.327E-11 -.993E-12   0.113E+01 0.271E-19 0.136E-19   -.130E-03 -.434E-09 -.435E-09
   0.829E+01 -.127E-05 -.184E-05   -.764E+01 0.417E-11 0.396E-11   -.649E+00 0.000E+00 0.000E+00   -.332E-04 0.616E-09 -.722E-09
   0.829E+01 -.113E-05 -.198E-05   -.764E+01 0.160E-11 -.608E-11   -.649E+00 0.000E+00 0.424E-21   -.332E-04 -.723E-09 0.616E-09
   0.188E+01 -.441E+01 0.749E+01   -.268E+01 0.361E+01 -.814E+01   0.798E+00 0.806E+00 0.642E+00   -.538E-04 0.100E-03 -.130E-03
   -.187E+01 -.436E+01 -.747E+01   0.267E+01 0.356E+01 0.811E+01   -.798E+00 0.805E+00 -.640E+00   0.116E-03 -.250E-04 -.161E-03
   -.137E+02 -.211E+01 0.153E+02   0.142E+02 0.102E+01 -.144E+02   -.510E+00 0.110E+01 -.932E+00   -.174E-04 -.480E-04 -.405E-04
   0.137E+02 -.212E+01 -.153E+02   -.142E+02 0.103E+01 0.143E+02   0.510E+00 0.110E+01 0.933E+00   0.836E-04 -.999E-04 -.823E-04
   0.188E+01 0.749E+01 -.441E+01   -.268E+01 -.814E+01 0.361E+01   0.798E+00 0.642E+00 0.806E+00   -.538E-04 -.130E-03 0.100E-03
   -.187E+01 -.747E+01 -.436E+01   0.267E+01 0.811E+01 0.356E+01   -.798E+00 -.640E+00 0.805E+00   0.116E-03 -.161E-03 -.250E-04
   0.137E+02 -.153E+02 -.212E+01   -.142E+02 0.143E+02 0.103E+01   0.510E+00 0.933E+00 0.110E+01   0.836E-04 -.823E-04 -.999E-04
   -.137E+02 0.153E+02 -.211E+01   0.142E+02 -.144E+02 0.102E+01   -.510E+00 -.932E+00 0.110E+01   -.174E-04 -.405E-04 -.480E-04
   -.187E+01 0.436E+01 0.747E+01   0.267E+01 -.356E+01 -.811E+01   -.798E+00 -.805E+00 0.640E+00   0.116E-03 0.250E-04 0.161E-03
   0.188E+01 0.441E+01 -.749E+01   -.268E+01 -.361E+01 0.814E+01   0.798E+00 -.806E+00 -.642E+00   -.538E-04 -.100E-03 0.130E-03
   0.137E+02 0.212E+01 0.153E+02   -.142E+02 -.103E+01 -.143E+02   0.510E+00 -.110E+01 -.933E+00   0.836E-04 0.999E-04 0.823E-04
   -.137E+02 0.211E+01 -.153E+02   0.142E+02 -.102E+01 0.144E+02   -.510E+00 -.110E+01 0.932E+00   -.174E-04 0.480E-04 0.405E-04
   -.187E+01 0.747E+01 0.436E+01   0.267E+01 -.811E+01 -.356E+01   -.798E+00 0.640E+00 -.805E+00   0.116E-03 0.161E-03 0.250E-04
   0.188E+01 -.749E+01 0.441E+01   -.268E+01 0.814E+01 -.361E+01   0.798E+00 -.642E+00 -.806E+00   -.538E-04 0.130E-03 -.100E-03
   -.137E+02 -.153E+02 0.211E+01   0.142E+02 0.144E+02 -.102E+01   -.510E+00 0.932E+00 -.110E+01   -.174E-04 0.405E-04 0.480E-04
   0.137E+02 0.153E+02 0.212E+01   -.142E+02 -.143E+02 -.103E+01   0.510E+00 -.933E+00 -.110E+01   0.836E-04 0.823E-04 0.999E-04
   -.828E+01 -.119E-05 -.625E-06   0.763E+01 -.239E-11 0.712E-12   0.647E+00 0.000E+00 0.000E+00   -.572E-05 0.851E-09 -.848E-09
   -.828E+01 -.105E-05 -.767E-06   0.763E+01 0.206E-11 0.170E-11   0.647E+00 0.000E+00 0.000E+00   -.572E-05 -.848E-09 0.851E-09
   0.789E+01 -.122E-05 -.446E-05   -.675E+01 0.177E-10 -.119E-10   -.113E+01 0.000E+00 0.000E+00   0.277E-03 0.739E-09 0.740E-09
   -.734E+00 -.111E-05 -.399E-05   0.138E+01 0.698E-11 -.752E-11   -.638E+00 0.000E+00 0.000E+00   -.266E-03 -.401E-09 -.401E-09
   -.103E+02 -.899E+01 -.899E+01   0.969E+01 0.920E+01 0.920E+01   0.578E+00 -.200E+00 -.200E+00   -.102E-04 0.272E-04 0.272E-04
   -.103E+02 0.899E+01 0.899E+01   0.969E+01 -.920E+01 -.920E+01   0.578E+00 0.200E+00 0.200E+00   -.102E-04 -.272E-04 -.272E-04
   0.103E+02 0.896E+01 -.896E+01   -.972E+01 -.917E+01 0.917E+01   -.587E+00 0.200E+00 -.200E+00   -.972E-04 0.317E-03 -.317E-03
   0.103E+02 -.896E+01 0.896E+01   -.972E+01 0.917E+01 -.917E+01   -.587E+00 -.200E+00 0.200E+00   -.972E-04 -.317E-03 0.317E-03
   -.708E+02 0.239E+02 -.239E+02   0.756E+02 -.262E+02 0.262E+02   -.483E+01 0.232E+01 -.232E+01   -.297E-03 0.140E-03 -.140E-03
   -.114E+02 -.569E+02 0.569E+02   0.136E+02 0.602E+02 -.602E+02   -.222E+01 -.327E+01 0.327E+01   -.187E-03 0.233E-03 -.233E-03
   0.517E+02 0.229E+02 0.557E+02   -.552E+02 -.256E+02 -.591E+02   0.347E+01 0.276E+01 0.336E+01   0.145E-03 -.913E-04 0.242E-03
   0.517E+02 -.557E+02 -.229E+02   -.552E+02 0.591E+02 0.256E+02   0.347E+01 -.336E+01 -.276E+01   0.145E-03 -.242E-03 0.913E-04
   0.517E+02 -.229E+02 -.557E+02   -.552E+02 0.256E+02 0.591E+02   0.347E+01 -.276E+01 -.336E+01   0.145E-03 0.913E-04 -.242E-03
   0.517E+02 0.557E+02 0.229E+02   -.552E+02 -.591E+02 -.256E+02   0.347E+01 0.336E+01 0.276E+01   0.145E-03 0.242E-03 -.913E-04
   -.708E+02 -.239E+02 0.239E+02   0.756E+02 0.262E+02 -.262E+02   -.483E+01 -.232E+01 0.232E+01   -.297E-03 -.140E-03 0.140E-03
   -.114E+02 0.569E+02 -.569E+02   0.136E+02 -.602E+02 0.602E+02   -.222E+01 0.327E+01 -.327E+01   -.187E-03 -.233E-03 0.233E-03
   -.517E+02 -.228E+02 0.558E+02   0.552E+02 0.255E+02 -.591E+02   -.347E+01 -.276E+01 0.336E+01   -.102E-03 -.148E-03 0.563E-04
   -.517E+02 0.558E+02 -.228E+02   0.552E+02 -.591E+02 0.255E+02   -.347E+01 0.336E+01 -.276E+01   -.102E-03 0.563E-04 -.148E-03
   0.708E+02 -.239E+02 -.239E+02   -.757E+02 0.262E+02 0.262E+02   0.483E+01 -.232E+01 -.232E+01   0.531E-03 -.555E-03 -.555E-03
   0.113E+02 0.570E+02 0.570E+02   -.135E+02 -.603E+02 -.603E+02   0.222E+01 0.327E+01 0.327E+01   -.192E-04 -.712E-03 -.712E-03
   -.517E+02 -.558E+02 0.228E+02   0.552E+02 0.591E+02 -.255E+02   -.347E+01 -.336E+01 0.276E+01   -.102E-03 -.563E-04 0.148E-03
   -.517E+02 0.228E+02 -.558E+02   0.552E+02 -.255E+02 0.591E+02   -.347E+01 0.276E+01 -.336E+01   -.102E-03 0.148E-03 -.563E-04
   0.113E+02 -.570E+02 -.570E+02   -.135E+02 0.603E+02 0.603E+02   0.222E+01 -.327E+01 -.327E+01   -.192E-04 0.712E-03 0.712E-03
   0.708E+02 0.239E+02 0.239E+02   -.757E+02 -.262E+02 -.262E+02   0.483E+01 0.232E+01 0.232E+01   0.531E-03 0.555E-03 0.555E-03
   0.546E+02 -.164E-08 0.859E-06   -.551E+02 0.169E-10 -.140E-10   0.521E+00 0.108E-18 0.000E+00   0.421E-04 -.965E-09 -.967E-09
   -.545E+02 -.257E-06 -.112E-05   0.551E+02 0.189E-10 -.135E-10   -.521E+00 0.000E+00 0.000E+00   -.746E-04 0.146E-08 0.145E-08
   -.796E-02 0.452E-06 0.187E-06   0.834E-02 -.951E-11 0.237E-10   -.703E-03 0.000E+00 0.000E+00   -.332E-04 -.190E-08 0.212E-08
   -.796E-02 0.293E-06 0.351E-06   0.834E-02 -.255E-10 0.106E-10   -.703E-03 0.000E+00 0.000E+00   -.332E-04 0.212E-08 -.190E-08
   0.154E+02 -.639E+02 -.639E+02   -.156E+02 0.651E+02 0.651E+02   0.235E+00 -.118E+01 -.118E+01   -.656E-04 -.258E-03 -.258E-03
   0.154E+02 0.639E+02 0.639E+02   -.156E+02 -.651E+02 -.651E+02   0.235E+00 0.118E+01 0.118E+01   -.656E-04 0.258E-03 0.258E-03
   -.153E+02 0.640E+02 -.640E+02   0.155E+02 -.652E+02 0.652E+02   -.238E+00 0.118E+01 -.118E+01   0.992E-04 -.155E-03 0.155E-03
   -.153E+02 -.640E+02 0.640E+02   0.155E+02 0.652E+02 -.652E+02   -.238E+00 -.118E+01 0.118E+01   0.992E-04 0.155E-03 -.155E-03
   0.348E-01 -.738E-05 -.334E-04   0.131E-12 -.711E-13 0.568E-13   -.567E-01 -.888E-15 0.444E-15   0.339E-03 0.640E-08 0.640E-08

 POSITION                                       TOTAL-FORCE (eV/Angst)
      9.37798      2.46574      2.46574        -0.000658      0.000000      0.000000
      0.00646      7.39589      7.39589         0.000467      0.000000      0.000000
      0.16244      2.46574      7.39589         0.000066      0.000000      0.000000
      0.16244      7.39589      2.46574         0.000066      0.000000      0.000000
      2.91632      3.06049      9.61049         0.000023      0.000257     -0.000032
      1.91269      7.99025      0.25113        -0.000007      0.000364      0.000098
      6.72714      2.82173      0.20693        -0.000536      0.000387     -0.000166
      7.96229      7.75247      9.65488         0.000595      0.000382      0.000158
      2.91632      9.61049      3.06049         0.000023     -0.000032      0.000257
      1.91269      0.25113      7.99025        -0.000007      0.000098      0.000364
      7.96229      9.65488      7.75247         0.000595      0.000158      0.000382
      6.72714      0.20693      2.82173        -0.000536     -0.000166      0.000387
      1.91269      6.80153      4.68034        -0.000007     -0.000364     -0.000098
      2.91632      1.87099      5.18129         0.000023     -0.000257      0.000032
      7.96229      7.03931      5.13690         0.000595     -0.000382     -0.000158
      6.72714      2.10974      4.72455        -0.000536     -0.000387      0.000166
      1.91269      4.68034      6.80153        -0.000007     -0.000098     -0.000364
      2.91632      5.18129      1.87099         0.000023      0.000032     -0.000257
      6.72714      4.72455      2.10974        -0.000536      0.000166     -0.000387
      7.96229      5.13690      7.03931         0.000595     -0.000158     -0.000382
      4.66724      2.46574      7.39589         0.000045      0.000000      0.000000
      4.66724      7.39589      2.46574         0.000045      0.000000     -0.000000
      4.82266      2.46574      2.46574        -0.000420      0.000000      0.000000
      5.31141      7.39589      7.39589         0.000841      0.000000      0.000000
      4.84409      5.00913      5.00913         0.000035     -0.000223     -0.000223
      4.84409      9.78266      9.78266         0.000035      0.000223      0.000223
      9.84346      4.85227      0.07921        -0.000210      0.000208     -0.000208
      9.84346      0.07921      4.85227        -0.000210     -0.000208      0.000208
      1.29998      8.82742      5.96437         0.000287      0.000260     -0.000260
      1.13565      1.27464      3.65684        -0.000334     -0.000319      0.000319
      8.60670      8.78051      3.67795        -0.000089      0.000418     -0.000133
      8.60670      1.25352      6.01127        -0.000089      0.000133     -0.000418
      8.60670      6.01127      1.25352        -0.000089     -0.000418      0.000133
      8.60670      3.67795      8.78051        -0.000089     -0.000133      0.000418
      1.29998      5.96437      8.82742         0.000287     -0.000260      0.000260
      1.13565      3.65684      1.27464        -0.000334      0.000319     -0.000319
      6.08180      1.08086      8.60853         0.000020     -0.000477     -0.000019
      6.08180      8.60853      1.08086         0.000020     -0.000019     -0.000477
      3.52770      1.03447      1.03447        -0.000267     -0.000274     -0.000274
      3.69269      8.58680      8.58680         0.000077      0.000074      0.000074
      6.08180      6.18326      3.85061         0.000020      0.000019      0.000477
      6.08180      3.85061      6.18326         0.000020      0.000477      0.000019
      3.69269      6.20498      6.20498         0.000077     -0.000074     -0.000074
      3.52770      3.89700      3.89700        -0.000267      0.000274      0.000274
      7.56244      7.39589      7.39589         0.000513      0.000000      0.000000
      7.12718      2.46574      2.46574        -0.000417      0.000000      0.000000
      2.41477      7.39589      2.46574         0.000050      0.000000      0.000000
      2.41477      2.46574      7.39589         0.000050      0.000000      0.000000
      0.00730      9.40062      9.40062         0.000209      0.000536      0.000536
      0.00730      5.39116      5.39116         0.000209     -0.000536     -0.000536
      4.82210      0.46181      4.46967        -0.000132     -0.000482      0.000482
      4.82210      4.46967      0.46181        -0.000132      0.000482     -0.000482
    total drift:                               -0.021556     -0.000007     -0.000033

  FREE ENERGIE OF THE ION-ELECTRON SYSTEM (eV)
  free  energy   TOTEN  =      -271.28372679 eV

  energy  without entropy=     -271.28372679  energy(sigma->0) =     -271.28372679

 d Force = 0.1354651E-05[ 0.619E-06, 0.209E-05]  d Energy = 0.1737997E-05-0.383E-06
 d Force = 0.2815247E-01[ 0.281E-01, 0.282E-01]  d Ewald  = 0.2815247E-01 0.164E-10

 stress matrix after NEB project (eV)
     -4.44184      0.00000     -0.00000
      0.00000      2.04871     -0.02088
      0.00000     -0.02088      2.04871
  FORCES: max atom, RMS     0.000841    0.000494
  FORCE total and by dimension    0.003565    0.000841
  Stress total and by dimension    5.303323    4.441837
 Conjugate gradient step on ions:
 trial-energy change:   -0.000002  1 .order   -0.000001   -0.000002   -0.000001
  (g-gl).g = 0.162E-05      g.g   = 0.158E-05  gl.gl    = 0.145E-04
 g(Force)  = 0.158E-05   g(Stress)= 0.000E+00 ortho     =-0.441E-07
 gamma     =   0.11158
 trial     =   1.32890
 opt step  =   1.88736  (harmonic =   1.88736) maximal distance =0.00008350
 next E    =  -271.283727   (d E  =  -0.00000)

 reached required accuracy - stopping structural energy minimisation