 vasp.6.4.1 05Apr23 (build Jun 07 2023 15:38:11) complex

 executed on             LinuxIFC date 2023.10.30  11:56:00

 INCAR:
   GGA = PE
   PREC = Accu
   EDIFF = 1.e-6
   EDIFFG = -1.e-3
   ENCUT = 520.
   NELM = 100
   NELMDL = -10
   LASPH = .TRUE.
   LREAL = Auto
   LMAXMIX = 4
   ISPIN = 2
   LDIAG = .TRUE.
   LPLANE = .TRUE.
   IVDW = 12
   SIGMA = 0.03
   ISMEAR = 0
   NSW = 1000    number of steps for IOM
   IBRION = 2    ionic relax: 0-MD 1-quasi-New 2-CG
   ISIF = 2    ionic relaxation + stress tensor calcn.
   LCHARG = .FALSE.
   LWAVE = .FALSE.
   ALGO = F
   KPAR = 1
   NPAR = 4
   POTIM = 0.2

 POTCAR:    PAW_PBE Li_sv_GW 25Mar2010
 POTCAR:    PAW_PBE P_GW 19Mar2012
 POTCAR:    PAW_PBE S_GW 19Mar2012
 POTCAR:    PAW_PBE Cl_GW 19Mar2012
|           W    W    AA    RRRRR   N    N  II  N    N   GGGG   !!!           |
|           W    W   A  A   R    R  NN   N  II  NN   N  G    G  !!!           |
|           W    W  A    A  R    R  N N  N  II  N N  N  G       !!!           |
|           W WW W  AAAAAA  RRRRR   N  N N  II  N  N N  G  GGG   !            |
|           WW  WW  A    A  R   R   N   NN  II  N   NN  G    G                |
|           W    W  A    A  R    R  N    N  II  N    N   GGGG   !!!           |
|     You use a magnetic or noncollinear calculation, but did not specify     |
|     the initial magnetic moment with the MAGMOM tag. Note that a            |
|     default of 1 will be used for all atoms. This ferromagnetic setup       |
|     may break the symmetry of the crystal, in particular it may rule        |
|     out finding an antiferromagnetic solution. Thence, we recommend         |
|     setting the initial magnetic moment manually or verifying carefully     |
|     that this magnetic setup is desired.                                    |

   TITEL  = PAW_PBE Li_sv_GW 25Mar2010
   POMASS =    7.010; ZVAL   =    3.000    mass and valenz
   ENMAX  =  433.699; ENMIN  =  325.274 eV

   TITEL  = PAW_PBE P_GW 19Mar2012
   POMASS =   30.974; ZVAL   =    5.000    mass and valenz
   ENMAX  =  255.040; ENMIN  =  191.280 eV

[...]

   TITEL  = PAW_PBE Cl_GW 19Mar2012
   POMASS =   35.453; ZVAL   =    7.000    mass and valenz
   ENMAX  =  262.472; ENMIN  =  196.854 eV

 Optimization of the real space projectors (new method)

 maximal supplied QI-value         = 25.13
 optimisation between [QCUT,QGAM] = [ 11.56, 23.12] = [ 37.43,149.72] Ry
 Optimized for a Real-space Cutoff    1.28 Angstroem

   l    n(q)    QCUT    max X(q) W(low)/X(q) W(high)/X(q)  e(spline)
   0      9    11.561    87.733    0.11E-03    0.32E-04    0.56E-06
   0      9    11.561    82.800    0.11E-03    0.35E-04    0.56E-06
   0      9    11.561     2.509    0.22E-03    0.42E-04    0.79E-06
   1      8    11.561    12.580    0.94E-04    0.26E-03    0.21E-06
   1      8    11.561     1.319    0.33E-04    0.15E-03    0.19E-06
   2      8    11.561     1.993    0.36E-04    0.89E-04    0.26E-06
 Optimization of the real space projectors (new method)

[...]

   l    n(q)    QCUT    max X(q) W(low)/X(q) W(high)/X(q)  e(spline)
   0     10    11.508     7.541    0.34E-04    0.13E-04    0.69E-07
   0     10    11.508     1.809    0.49E-04    0.27E-04    0.14E-06
   1     10    11.508     4.107    0.27E-05    0.41E-05    0.14E-06
   1     10    11.508     2.196    0.26E-05    0.25E-05    0.22E-06
   2      9    11.508     4.265    0.18E-03    0.11E-03    0.81E-06
   2      9    11.508     1.925    0.97E-04    0.76E-04    0.47E-06
 Optimization of the real space projectors (new method)

 maximal supplied QI-value         = 19.84
 optimisation between [QCUT,QGAM] = [ 11.51, 23.22] = [ 37.09,150.92] Ry
 Optimized for a Real-space Cutoff    1.21 Angstroem

   l    n(q)    QCUT    max X(q) W(low)/X(q) W(high)/X(q)  e(spline)
   0      8    11.508     6.761    0.57E-04    0.57E-04    0.35E-07
   0      8    11.508     1.642    0.14E-03    0.14E-03    0.91E-07
   1      8    11.508     3.519    0.20E-04    0.72E-04    0.47E-07
   1      8    11.508     2.150    0.27E-04    0.11E-03    0.89E-07
   2      7    11.508     2.976    0.19E-03    0.33E-03    0.16E-06
   2      7    11.508     1.494    0.14E-03    0.29E-03    0.14E-06
  PAW_PBE Li_sv_GW 25Mar2010            :
  PAW_PBE P_GW 19Mar2012                :
  PAW_PBE S_GW 19Mar2012                :
  PAW_PBE Cl_GW 19Mar2012               :

 POSCAR: Li24 P4 S20 Cl4
  positions in direct lattice
  velocities in cartesian coordinates
 exchange correlation table for  LEXCH =        8
   RHO(1)=    0.500       N(1)  =     2000
   RHO(2)=  100.500       N(2)  =     4000

 VTST: version 4.1, (05/19/21)

 CHAIN: initializing optimizer

 OPT: Using VASP Conjugate-Gradient optimizer
 CHAIN: Read ICHAIN            0

 POSCAR: Li24 P4 S20 Cl4
  positions in direct lattice
  velocities in cartesian coordinates

 ion  position               nearest neighbor table
   1  0.961  0.185  0.153-
   2  0.003  0.696  0.712-
   3  0.058  0.339  0.698-
   4  0.022  0.839  0.217-
   5  0.853  0.978  0.787-
   6  0.212  0.795  0.018-
   7  0.692  0.296  0.005-
   8  0.805  0.798  0.990-
   9  0.314  0.988  0.278-
  10  0.198  0.046  0.823-
  11  0.554  0.848  0.649-
  12  0.670  0.040  0.322-
  13  0.296  0.800  0.485-
  14  0.282  0.212  0.512-
  15  0.807  0.698  0.517-
  16  0.818  0.328  0.454-
  17  0.305  0.373  0.943-
  18  0.150  0.546  0.325-
  19  0.715  0.492  0.211-
  20  0.778  0.511  0.740-
  21  0.490  0.186  0.695-
  22  0.459  0.680  0.191-
  23  0.505  0.289  0.228-
  24  0.537  0.661  0.849-
  25  0.497  0.511  0.507-  43 2.04  44 2.05  42 2.05  41 2.07
  26  0.510  1.000  0.993-  39 2.05  38 2.05  37 2.05  40 2.07
  27  0.016  0.499  0.012-  36 2.03  35 2.04  33 2.06  34 2.07
  28  0.998  0.016  0.499-  32 2.04  30 2.05  31 2.06  29 2.06
  29  0.118  0.897  0.628-  28 2.06
  30  0.113  0.122  0.356-  28 2.05
  31  0.861  0.895  0.390-  28 2.06
  32  0.890  0.153  0.618-  28 2.04
  33  0.899  0.628  0.136-  27 2.06
  34  0.896  0.369  0.892-  27 2.07
  35  0.149  0.600  0.882-  27 2.04
  36  0.131  0.375  0.138-  27 2.03
  37  0.646  0.102  0.866-  26 2.05
  38  0.614  0.877  0.131-  26 2.05
  39  0.375  0.133  0.089-  26 2.05
  40  0.392  0.874  0.865-  26 2.07
  41  0.615  0.639  0.382-  25 2.07
  42  0.625  0.376  0.610-  25 2.05
  43  0.392  0.635  0.643-  25 2.04
  44  0.360  0.407  0.382-  25 2.05
  45  0.759  0.748  0.755-
  46  0.741  0.256  0.238-
  47  0.244  0.761  0.254-
  48  0.271  0.253  0.741-
  49  0.006  0.971  0.996-
  50  0.980  0.519  0.527-
  51  0.471  0.016  0.484-
  52  0.524  0.492  0.026-

  LATTYP: Found a simple cubic cell.
 ALAT       =     9.6609735872

  Lattice vectors:

 A1 = (   9.6609735872,   0.0000000000,   0.0000000000)
 A2 = (   0.0000000000,   9.6609735872,   0.0000000000)
 A3 = (   0.0000000000,   0.0000000000,   9.6609735872)

Analysis of symmetry for initial positions (statically):
 Subroutine PRICEL returns:
 Original cell was already a primitive cell.

 Routine SETGRP: Setting up the symmetry group for a
 simple cubic supercell.

 Subroutine GETGRP returns: Found  1 space group operations
 (whereof  1 operations were pure point group operations)
 out of a pool of 48 trial point group operations.

The static configuration has the point symmetry C_1 .

Analysis of symmetry for dynamics (positions and initial velocities):
 Subroutine PRICEL returns:
 Original cell was already a primitive cell.

[...]

The dynamic configuration has the point symmetry C_1 .

Analysis of structural, dynamic, and magnetic symmetry:
 Subroutine PRICEL returns:
 Original cell was already a primitive cell.

 Routine SETGRP: Setting up the symmetry group for a
 simple cubic supercell.

 Subroutine GETGRP returns: Found  1 space group operations
 (whereof  1 operations were pure point group operations)
 out of a pool of 48 trial point group operations.

The overall configuration has the point symmetry C_1 .

 Subroutine INISYM returns: Found  1 space group operations
 (whereof  1 operations are pure point group operations),
 and found     1 'primitive' translations

                                     Primitive cell

  volume of cell :     901.7013

  direct lattice vectors                    reciprocal lattice vectors
     9.660973587  0.000000000  0.000000000     0.103509237  0.000000000  0.000000000
     0.000000000  9.660973587  0.000000000     0.000000000  0.103509237  0.000000000
     0.000000000  0.000000000  9.660973587     0.000000000  0.000000000  0.103509237

  length of vectors
     9.660973587  9.660973587  9.660973587     0.103509237  0.103509237  0.103509237

  position of ions in fractional coordinates (direct lattice)
     0.960969318  0.185055470  0.152577440
     0.002948108  0.695933730  0.712042452
     0.057562048  0.339061195  0.698034577
     0.022186744  0.838566778  0.217207063
     0.853224838  0.977591885  0.787102185
     0.211646429  0.795294779  0.017846993
     0.691556786  0.295953159  0.005455382
     0.804863190  0.798323401  0.989956068
     0.313903594  0.988473680  0.277740015
     0.197710710  0.045748690  0.823336856
     0.554069023  0.847528877  0.648520102
     0.669678987  0.039811470  0.322229394
     0.296486671  0.799989044  0.485060931
     0.282234313  0.211882380  0.511738914
     0.807162124  0.697686057  0.516823718
     0.817608595  0.327881256  0.454088646
     0.305383407  0.372914720  0.942932509
     0.150169051  0.545875371  0.324950777
     0.714926268  0.492439821  0.210998279
     0.777640969  0.510847956  0.739583082
     0.490399944  0.185818540  0.695006375
     0.458709545  0.679565731  0.191400421
     0.504507891  0.288945989  0.227914284
     0.536575224  0.661249037  0.849466698
     0.497052032  0.510832131  0.507165437
     0.509805960  0.999513671  0.992515082
     0.016303204  0.498515303  0.012312004
     0.998036567  0.016151604  0.498500396
     0.118116211  0.896700576  0.628428661
     0.113456801  0.122486312  0.356274716
     0.860744378  0.895260522  0.389563872
     0.890092420  0.152766338  0.618480664
     0.899421012  0.628180150  0.135605365
     0.895942389  0.368574310  0.892413869
     0.148965833  0.600068395  0.882471292
     0.131152984  0.374671623  0.137988405
     0.646400594  0.102132796  0.865904814
     0.613974416  0.877084371  0.131031955
     0.375474482  0.132700875  0.088517396
     0.392490694  0.873936681  0.865135133
     0.614721957  0.638556920  0.382358565
     0.624964952  0.375988925  0.610178112
     0.392459375  0.635104961  0.642593114
     0.360293602  0.407338872  0.382398442
     0.759236784  0.747771594  0.755232561
     0.740719226  0.255984147  0.238188814
     0.244185365  0.761106768  0.254085246
     0.270763532  0.252966649  0.740950371
     0.005828470  0.970555698  0.996313762
     0.979704233  0.519077467  0.527036099
     0.471055698  0.015581184  0.483551046
     0.524407129  0.492452506  0.025654594

  ion indices of the primitive-cell ions
   primitive index   ion index
                 1           1
                 2           2
                 3           3
                 4           4
                 5           5
                 6           6
                 7           7
                 8           8
[...]
      5     -42.5432      1.00000
      6     -42.5134      1.00000
      7     -42.4616      1.00000
      8     -42.4589      1.00000
      9     -42.4258      1.00000
     10     -42.4063      1.00000
     11     -42.3850      1.00000
     12     -42.3777      1.00000
     13     -42.3569      1.00000
     14     -42.3502      1.00000
     15     -42.3473      1.00000
     16     -42.3339      1.00000
     17     -42.3297      1.00000
     18     -42.3196      1.00000
     19     -42.3060      1.00000
     20     -42.2569      1.00000
     21     -42.1773      1.00000
     22     -42.1102      1.00000
     23     -42.0326      1.00000
     24     -41.9832      1.00000
     25     -13.0348      1.00000
     26     -12.9956      1.00000
     27     -12.9528      1.00000
     28     -12.9230      1.00000
     29     -12.7916      1.00000
     30     -12.6735      1.00000
     31     -12.6670      1.00000
     32     -12.6573      1.00000
     33     -10.2667      1.00000
     34     -10.2601      1.00000
     35     -10.2131      1.00000
     36     -10.1024      1.00000
     37     -10.0528      1.00000
     38     -10.0211      1.00000
     39     -10.0000      1.00000
     40      -9.9554      1.00000
     41      -9.9319      1.00000
     42      -9.9143      1.00000
     43      -9.8620      1.00000
     44      -9.8053      1.00000
     45      -8.7830      1.00000
     46      -8.3271      1.00000
     47      -8.3212      1.00000
     48      -7.5988      1.00000
     49      -6.1222      1.00000
     50      -5.7139      1.00000
     51      -5.6373      1.00000
     52      -5.5788      1.00000
     53      -3.2243      1.00000
     54      -3.2091      1.00000
     55      -3.1447      1.00000
     56      -2.8349      1.00000
     57      -2.7356      1.00000
     58      -2.6442      1.00000
     59      -2.5791      1.00000
     60      -2.4872      1.00000
[...]
    162       9.1060      0.00000
    163       9.1409      0.00000
    164       9.2132      0.00000
    165       9.2958      0.00000
    166       9.3564      0.00000
    167       9.4227      0.00000
    168       9.4431      0.00000
    169       9.5140      0.00000
    170       9.5448      0.00000
    171       9.6356      0.00000
    172       9.6508      0.00000
    173       9.7225      0.00000
    174       9.8025      0.00000
    175       9.8573      0.00000
    176       9.9322      0.00000

[...]

 soft charge-density along one line, spin component           2
         0         1         2         3         4         5         6         7         8         9
 total charge-density along one line

------------------------ aborting loop because EDIFF is reached ----------------------------------------

         DFTD3 V3.0 Rev 1
 Edisp (eV)  -13.56844

 E6    (eV) :    -8.3622
 E8    (eV) :    -5.2063
 % E8        : 38.37

  FORCE on cell =-STRESS in cart. coord.  units (eV):
  Direction    XX          YY          ZZ          XY          YZ          ZX
  Alpha Z   301.05037   301.05037   301.05037
  Ewald   -2980.07230 -2953.91682 -2883.88875   -27.16289   -19.70886    62.80482
  Hartree   715.42219   731.85414   761.69254    -8.16103    -2.62511    39.10247
  E(xc)    -947.80563  -947.76393  -947.59680    -0.08924    -0.05046     0.09133
  Local   -1445.89492 -1488.58111 -1580.32775    31.55058    20.52835  -101.21914
  n-local  1481.64455  1481.64838  1481.30181    -0.38956    -0.69473     0.40569
  augment  -357.12230  -357.08389  -356.64216    -0.26243     0.11466    -0.03486
  Kinetic  3246.82613  3246.97429  3239.30146     5.32393     0.40429    -0.55892
  Fock        0.00000     0.00000     0.00000     0.00000     0.00000     0.00000
  vdW       -14.39001   -14.36784   -14.38886    -0.01499    -0.03292     0.02707
  Total      -0.34191    -0.18641     0.50186     0.79438    -2.06478     0.61845
  in kB      -0.60752    -0.33122     0.89172     1.41148    -3.66878     1.09888

 VOLUME and BASIS-vectors are now :
  energy-cutoff  :      520.00
  volume of cell :      901.70
      direct lattice vectors                 reciprocal lattice vectors
     9.660973587  0.000000000  0.000000000     0.103509237  0.000000000  0.000000000
     0.000000000  9.660973587  0.000000000     0.000000000  0.103509237  0.000000000
     0.000000000  0.000000000  9.660973587     0.000000000  0.000000000  0.103509237

  length of vectors
     9.660973587  9.660973587  9.660973587     0.103509237  0.103509237  0.103509237

 FORCES acting on ions
    electron-ion (+dipol)            ewald-force                    non-local-force                 convergence-correction
   -.294E-01 0.100E+02 0.946E+01   -.581E+00 -.870E+01 -.819E+01   0.609E+00 -.130E+01 -.127E+01   0.137E-03 -.502E-05 0.219E-04
   -.133E+02 -.623E+00 0.581E+00   0.134E+02 0.114E+01 0.108E+00   -.137E+00 -.526E+00 -.692E+00   -.252E-03 -.251E-04 -.282E-04
   -.830E+01 -.342E+01 0.756E+01   0.101E+02 0.188E+01 -.663E+01   -.180E+01 0.155E+01 -.936E+00   -.148E-03 -.265E-04 0.105E-03
   0.572E+01 -.460E+01 -.185E+01   -.479E+01 0.356E+01 0.295E+01   -.924E+00 0.104E+01 -.109E+01   -.247E-04 0.588E-04 0.263E-04
   -.289E+01 -.756E+01 -.171E+01   0.179E+01 0.761E+01 0.109E+01   0.111E+01 -.520E-01 0.612E+00   -.230E-05 -.644E-04 -.531E-04
   -.193E+01 -.255E+01 0.455E+01   0.272E+01 0.131E+01 -.380E+01   -.795E+00 0.125E+01 -.751E+00   0.272E-04 0.779E-04 0.372E-04
   0.352E+01 0.653E+00 0.133E+02   -.222E+01 -.178E+01 -.124E+02   -.130E+01 0.112E+01 -.860E+00   -.860E-04 -.192E-04 0.174E-03
   0.228E+01 -.249E+01 -.335E+01   -.281E+01 0.132E+01 0.322E+01   0.533E+00 0.117E+01 0.126E+00   0.859E-04 0.359E-04 -.162E-04
   -.450E+01 -.741E+01 0.171E+01   0.335E+01 0.637E+01 -.259E+01   0.116E+01 0.104E+01 0.881E+00   -.405E-04 0.598E-04 -.284E-04
   0.109E+02 -.491E+01 -.115E+02   -.953E+01 0.713E+01 0.947E+01   -.134E+01 -.221E+01 0.198E+01   0.127E-04 0.154E-03 -.310E-04
   -.911E+01 -.155E+02 0.111E+02   0.927E+01 0.145E+02 -.104E+02   -.164E+00 0.104E+01 -.723E+00   0.527E-06 0.118E-03 -.493E-04
   0.215E+01 -.249E+01 -.974E+01   -.999E+00 0.316E+01 0.876E+01   -.115E+01 -.664E+00 0.980E+00   -.677E-05 0.439E-04 -.467E-05
   0.170E+01 0.533E+01 -.437E+01   -.263E+01 -.616E+01 0.371E+01   0.932E+00 0.833E+00 0.659E+00   0.878E-05 0.127E-03 -.365E-04
   0.205E+01 -.485E+01 0.485E+01   -.276E+01 0.610E+01 -.311E+01   0.714E+00 -.125E+01 -.174E+01   -.701E-04 -.148E-03 -.775E-04
   -.333E+01 -.302E+01 0.869E+01   0.253E+01 0.394E+01 -.875E+01   0.802E+00 -.929E+00 0.655E-01   -.683E-04 -.163E-03 0.127E-03
   -.108E+02 -.864E-01 0.976E+01   0.941E+01 -.108E+01 -.104E+02   0.137E+01 0.117E+01 0.614E+00   -.124E-03 0.315E-04 0.821E-04
   -.109E+02 -.325E+01 0.202E+01   0.983E+01 0.188E+01 -.387E+01   0.102E+01 0.137E+01 0.185E+01   0.423E-04 -.117E-03 0.173E-03
   0.104E+02 0.406E+01 -.167E+02   -.894E+01 -.348E+01 0.154E+02   -.146E+01 -.585E+00 0.126E+01   0.108E-03 0.142E-04 -.208E-03
   -.726E+01 -.446E+01 -.254E+01   0.812E+01 0.368E+01 0.335E+01   -.864E+00 0.775E+00 -.810E+00   -.129E-03 0.253E-04 0.125E-03
   0.695E+01 0.789E+01 -.818E+01   -.733E+01 -.754E+01 0.867E+01   0.396E+00 -.347E+00 -.500E+00   0.377E-03 -.370E-04 -.341E-03
   -.923E+01 0.244E+01 0.335E+01   0.769E+01 -.998E+00 -.213E+01   0.153E+01 -.144E+01 -.122E+01   -.168E-05 -.123E-03 0.506E-04
   0.599E+01 0.494E+01 0.102E+02   -.700E+01 -.366E+01 -.890E+01   0.101E+01 -.129E+01 -.127E+01   0.254E-04 -.823E-04 0.951E-04
   0.998E+01 0.491E+01 -.602E+01   -.912E+01 -.538E+01 0.644E+01   -.851E+00 0.478E+00 -.424E+00   0.897E-04 0.789E-04 -.126E-03
   0.120E+01 0.147E+02 -.962E+01   -.120E+01 -.141E+02 0.870E+01   -.200E-02 -.590E+00 0.918E+00   -.111E-03 0.133E-03 -.392E-05
   0.125E+02 0.112E+02 -.909E+01   -.131E+02 -.112E+02 0.940E+01   0.550E+00 -.135E-01 -.306E+00   0.767E-04 -.117E-03 -.792E-04
   -.332E+01 -.778E+01 -.453E+01   0.336E+01 0.790E+01 0.473E+01   -.412E-01 -.120E+00 -.202E+00   0.266E-04 0.130E-03 0.444E-04
   0.399E+01 -.166E+00 -.273E+01   -.277E+01 -.161E+00 0.283E+01   -.121E+01 0.317E+00 -.992E-01   0.946E-04 0.546E-04 -.417E-04
   0.135E+01 -.302E+01 0.514E+00   -.155E+01 0.356E+01 -.652E+00   0.192E+00 -.532E+00 0.138E+00   -.354E-04 -.514E-05 -.414E-04
   -.398E+02 0.355E+02 -.373E+02   0.435E+02 -.381E+02 0.408E+02   -.371E+01 0.259E+01 -.347E+01   0.892E-04 0.711E-04 0.298E-04
   -.222E+02 -.525E+02 0.489E+02   0.241E+02 0.561E+02 -.526E+02   -.186E+01 -.358E+01 0.364E+01   0.150E-03 0.162E-04 -.136E-03
   0.495E+02 0.264E+02 0.312E+02   -.530E+02 -.291E+02 -.341E+02   0.350E+01 0.272E+01 0.289E+01   0.108E-03 0.102E-03 0.141E-03
   0.436E+02 -.404E+02 -.353E+02   -.465E+02 0.432E+02 0.382E+02   0.287E+01 -.287E+01 -.294E+01   0.272E-04 -.807E-04 -.208E-04
   0.292E+02 -.259E+02 -.487E+02   -.320E+02 0.287E+02 0.526E+02   0.283E+01 -.273E+01 -.390E+01   0.197E-04 0.105E-04 0.380E-05
   0.257E+02 0.606E+02 0.256E+02   -.275E+02 -.650E+02 -.283E+02   0.184E+01 0.439E+01 0.275E+01   0.216E-03 -.387E-04 -.299E-03
   -.625E+02 -.200E+02 0.511E+02   0.666E+02 0.209E+02 -.545E+02   -.412E+01 -.990E+00 0.337E+01   -.340E-03 -.131E-03 0.307E-03
   -.410E+02 0.504E+02 -.460E+02   0.435E+02 -.533E+02 0.490E+02   -.252E+01 0.284E+01 -.297E+01   0.176E-03 -.202E-03 -.800E-04
   -.471E+02 -.351E+02 0.421E+02   0.505E+02 0.376E+02 -.455E+02   -.344E+01 -.254E+01 0.339E+01   -.189E-03 -.140E-03 0.159E-04
   -.372E+02 0.309E+02 -.483E+02   0.397E+02 -.337E+02 0.520E+02   -.243E+01 0.285E+01 -.377E+01   -.136E-03 0.194E-03 0.390E-04
   0.587E+02 -.485E+02 -.170E+02   -.635E+02 0.517E+02 0.181E+02   0.478E+01 -.323E+01 -.117E+01   -.162E-03 0.193E-03 -.251E-04
   0.414E+02 0.316E+02 0.401E+02   -.439E+02 -.342E+02 -.433E+02   0.247E+01 0.257E+01 0.324E+01   -.714E-04 0.234E-03 -.124E-03
   -.310E+02 -.503E+02 0.319E+02   0.332E+02 0.542E+02 -.345E+02   -.219E+01 -.391E+01 0.255E+01   0.258E-03 0.782E-04 -.328E-03
   -.190E+02 0.551E+02 -.386E+02   0.221E+02 -.594E+02 0.410E+02   -.305E+01 0.425E+01 -.238E+01   0.208E-03 0.985E-04 -.316E-03
   0.644E+02 -.270E+01 -.457E+02   -.680E+02 0.472E+01 0.496E+02   0.359E+01 -.202E+01 -.390E+01   0.164E-03 0.413E-04 -.233E-03
   0.572E+02 0.272E+02 0.282E+02   -.612E+02 -.291E+02 -.318E+02   0.399E+01 0.191E+01 0.363E+01   0.269E-03 0.185E-04 -.133E-03
   0.504E+01 -.109E+02 -.480E+01   -.526E+01 0.114E+02 0.489E+01   0.226E+00 -.431E+00 -.893E-01   0.393E-03 0.123E-03 -.333E-03
   -.211E+02 0.207E+02 -.126E+02   0.216E+02 -.211E+02 0.128E+02   -.495E+00 0.490E+00 -.217E+00   -.264E-03 0.597E-04 -.232E-04
   0.139E+00 0.183E+02 -.564E+01   -.121E+00 -.188E+02 0.572E+01   -.217E-01 0.489E+00 -.775E-01   0.743E-04 0.139E-03 -.110E-05
   0.131E+01 -.232E+02 -.951E+01   -.121E+01 0.237E+02 0.985E+01   -.109E+00 -.546E+00 -.332E+00   -.748E-04 -.380E-03 0.200E-03
   -.299E+01 -.405E+02 -.331E-01   0.313E+01 0.412E+02 0.510E-01   -.138E+00 -.757E+00 -.180E-01   0.928E-04 0.806E-04 -.497E-04
   -.445E+02 0.132E+02 0.329E+02   0.453E+02 -.134E+02 -.336E+02   -.820E+00 0.244E+00 0.669E+00   -.955E-03 0.878E-04 0.104E-02
   -.246E+02 -.115E+02 -.326E+01   0.249E+02 0.118E+02 0.325E+01   -.254E+00 -.348E+00 0.177E-01   -.522E-04 -.733E-04 0.915E-04
   0.198E+02 0.859E+00 0.265E+02   -.202E+02 -.100E+01 -.268E+02   0.369E+00 0.137E+00 0.251E+00   -.370E-03 -.495E-03 0.500E-03
   -.122E+01 -.283E+01 0.165E+01   0.320E-13 0.844E-14 0.782E-13   0.122E+01 0.283E+01 -.164E+01   -.357E-03 0.217E-03 0.163E-03

 POSITION                                       TOTAL-FORCE (eV/Angst)
      9.28392      1.78784      1.47400        -0.000073     -0.000052      0.000059
      0.02845      6.72331      6.87897         0.000101      0.000074      0.000106
      0.55614      3.27575      6.74365        -0.000002     -0.000119      0.000023
      0.21434      8.10142      2.09845        -0.000033     -0.000104     -0.000029
      8.24301      9.44446      7.60413        -0.000056      0.000091      0.000047
      2.04469      7.68338      0.17239         0.000050     -0.000159     -0.000006
      6.68115      2.85917      0.05273        -0.000019      0.000028     -0.000047
      7.77578      7.71262      9.56394        -0.000064     -0.000070      0.000016
      3.03267      9.54960      2.68323        -0.000071     -0.000036      0.000018
      1.91004      0.44205      7.95422         0.000080     -0.000099      0.000010
      5.35288      8.18786      6.26518        -0.000064      0.000105      0.000224
      6.46980      0.38460      3.11304        -0.000047     -0.000007      0.000014
      2.86428      7.72862      4.68617         0.000145      0.000040      0.000039
      2.72665      2.04698      4.94387         0.000054      0.000053      0.000124
      7.79798      6.74019      4.99303         0.000069      0.000140      0.000056
      7.89901      3.16770      4.38692        -0.000139     -0.000111      0.000121
      2.95035      3.60276      9.10962        -0.000070      0.000012     -0.000020
      1.45075      5.27370      3.13933         0.000078     -0.000019      0.000056
      6.90687      4.75747      2.03847         0.000068     -0.000123     -0.000091
      7.51241      4.93527      7.14547         0.000514      0.000036     -0.000556
      4.73776      1.79514      6.71441        -0.000013      0.000110      0.000037
      4.43155      6.56520      1.84912         0.000021      0.000137     -0.000076
      4.87407      2.79142      2.20197        -0.000019      0.000143     -0.000109
      5.18375      6.38850      8.20677         0.000123     -0.000250     -0.000135
      4.80194      4.93507      4.89977        -0.000055      0.000021      0.000113
      4.92527      9.65629      9.58868         0.000141     -0.000292     -0.000184
      0.15755      4.81620      0.11895         0.000020      0.000063     -0.000497
      9.64196      0.15603      4.81599        -0.000286      0.000016      0.000471
      1.14110      8.66298      6.07128         0.000106     -0.000038     -0.000056
      1.09611      1.18328      3.44193         0.000161      0.000357     -0.000242
      8.31561      8.64903      3.76363         0.000276      0.000452     -0.000069
      8.59919      1.47590      5.97512         0.000306     -0.000604     -0.000471
      8.68928      6.06884      1.31008         0.000064     -0.000008     -0.000020
      8.65571      3.56073      8.62158        -0.000105      0.000205      0.000034
      1.43916      5.79727      8.52554        -0.000543     -0.000463      0.000520
      1.26710      3.61970      1.33309         0.000110     -0.000151      0.000236
      6.24489      0.98671      8.36549        -0.000153     -0.000156      0.000175
      5.93156      8.47345      1.26588        -0.000182      0.000510     -0.000493
      3.62747      1.28205      0.85517        -0.000190      0.000129      0.000210
      3.79179      8.44317      8.35798         0.000206     -0.000304      0.000168
      5.93879      6.16914      3.69397         0.000383      0.000277     -0.000444
      6.03779      3.63239      5.89487        -0.000239      0.000245     -0.000054
      3.79154      6.13569      6.20811         0.000186     -0.000152     -0.000366
      3.48078      3.93531      3.69435         0.000333      0.000146      0.000217
      7.33495      7.22419      7.29628         0.000035      0.000015      0.000030
      7.15612      2.47306      2.30116        -0.000186     -0.000009     -0.000078
      2.35906      7.35303      2.45469         0.000007      0.000009      0.000077
      2.61587      2.44395      7.15828        -0.000099     -0.000086     -0.000029
      0.05630      9.37654      9.62536         0.000057     -0.000017      0.000015
      9.46500      5.01478      5.09156        -0.000358      0.000083      0.000486
      4.55086      0.15053      4.67156         0.000144      0.000024      0.000062
      5.06637      4.75760      0.24779        -0.000772     -0.000093      0.000306
    total drift:                                0.003953      0.002054      0.003221

  FREE ENERGIE OF THE ION-ELECTRON SYSTEM (eV)
  free  energy   TOTEN  =      -271.99918661 eV

  energy  without entropy=     -271.99918661  energy(sigma->0) =     -271.99918661

 d Force =-0.2787249E-07[-0.522E-06, 0.466E-06]  d Energy = 0.1111288E-05-0.114E-05
 d Force = 0.1200783E-01[ 0.120E-01, 0.120E-01]  d Ewald  = 0.1200783E-01 0.600E-10

 stress matrix after NEB project (eV)
     -0.34191      0.79438      0.61845
      0.79438     -0.18641     -2.06478
      0.61845     -2.06478      0.50186
  FORCES: max atom, RMS     0.000883    0.000364
  FORCE total and by dimension    0.002627    0.000772
  Stress total and by dimension    3.310163    2.064782

 reached required accuracy - stopping structural energy minimisation