 vasp.6.4.1 05Apr23 (build Jun 07 2023 15:38:11) complex

 executed on             LinuxIFC date 2023.10.01  03:56:29

 INCAR:
   GGA = PE
   PREC = Accu
   EDIFF = 1.e-5
   EDIFFG = -1.e-2
   ENCUT = 520.
   NELM = 100
   NELMDL = -10
   LASPH = .TRUE.
   LREAL = Auto
   LMAXMIX = 4
   ISPIN = 2
   LDIAG = .TRUE.
   LPLANE = .TRUE.
   IVDW = 12
   SIGMA = 0.03
   ISMEAR = 0
   NSW = 1000    number of steps for IOM
   IBRION = 1    ionic relax: 0-MD 1-quasi-New 2-CG
   ISIF = 2    ionic relaxation + stress tensor calcn.
   LCHARG = .FALSE.
   LWAVE = .FALSE.
   ALGO = V
   KPAR = 1
   NPAR = 4

 POTCAR:    PAW_PBE Li_sv_GW 25Mar2010
 POTCAR:    PAW_PBE P_GW 19Mar2012
 POTCAR:    PAW_PBE S_GW 19Mar2012
 POTCAR:    PAW_PBE Cl_GW 19Mar2012
|           W    W    AA    RRRRR   N    N  II  N    N   GGGG   !!!           |
|           W    W   A  A   R    R  NN   N  II  NN   N  G    G  !!!           |
|           W    W  A    A  R    R  N N  N  II  N N  N  G       !!!           |
|           W WW W  AAAAAA  RRRRR   N  N N  II  N  N N  G  GGG   !            |
|           WW  WW  A    A  R   R   N   NN  II  N   NN  G    G                |
|           W    W  A    A  R    R  N    N  II  N    N   GGGG   !!!           |
|     You use a magnetic or noncollinear calculation, but did not specify     |
|     the initial magnetic moment with the MAGMOM tag. Note that a            |
|     default of 1 will be used for all atoms. This ferromagnetic setup       |
|     may break the symmetry of the crystal, in particular it may rule        |
|     out finding an antiferromagnetic solution. Thence, we recommend         |
|     setting the initial magnetic moment manually or verifying carefully     |
|     that this magnetic setup is desired.                                    |

   TITEL  = PAW_PBE Li_sv_GW 25Mar2010
   POMASS =    7.010; ZVAL   =    3.000    mass and valenz
   ENMAX  =  433.699; ENMIN  =  325.274 eV

   TITEL  = PAW_PBE P_GW 19Mar2012
   POMASS =   30.974; ZVAL   =    5.000    mass and valenz
   ENMAX  =  255.040; ENMIN  =  191.280 eV

[...]

   TITEL  = PAW_PBE Cl_GW 19Mar2012
   POMASS =   35.453; ZVAL   =    7.000    mass and valenz
   ENMAX  =  262.472; ENMIN  =  196.854 eV

 Optimization of the real space projectors (new method)

 maximal supplied QI-value         = 25.13
 optimisation between [QCUT,QGAM] = [ 11.56, 23.12] = [ 37.43,149.72] Ry
 Optimized for a Real-space Cutoff    1.28 Angstroem

   l    n(q)    QCUT    max X(q) W(low)/X(q) W(high)/X(q)  e(spline)
   0      9    11.561    87.733    0.11E-03    0.32E-04    0.56E-06
   0      9    11.561    82.800    0.11E-03    0.35E-04    0.56E-06
   0      9    11.561     2.509    0.22E-03    0.42E-04    0.79E-06
   1      8    11.561    12.580    0.94E-04    0.26E-03    0.21E-06
   1      8    11.561     1.319    0.33E-04    0.15E-03    0.19E-06
   2      8    11.561     1.993    0.36E-04    0.89E-04    0.26E-06
 Optimization of the real space projectors (new method)

[...]

   l    n(q)    QCUT    max X(q) W(low)/X(q) W(high)/X(q)  e(spline)
   0     10    11.508     7.541    0.34E-04    0.13E-04    0.69E-07
   0     10    11.508     1.809    0.49E-04    0.27E-04    0.14E-06
   1     10    11.508     4.107    0.27E-05    0.41E-05    0.14E-06
   1     10    11.508     2.196    0.26E-05    0.25E-05    0.22E-06
   2      9    11.508     4.265    0.18E-03    0.11E-03    0.81E-06
   2      9    11.508     1.925    0.97E-04    0.76E-04    0.47E-06
 Optimization of the real space projectors (new method)

 maximal supplied QI-value         = 19.84
 optimisation between [QCUT,QGAM] = [ 11.51, 23.22] = [ 37.09,150.92] Ry
 Optimized for a Real-space Cutoff    1.21 Angstroem

   l    n(q)    QCUT    max X(q) W(low)/X(q) W(high)/X(q)  e(spline)
   0      8    11.508     6.761    0.57E-04    0.57E-04    0.35E-07
   0      8    11.508     1.642    0.14E-03    0.14E-03    0.91E-07
   1      8    11.508     3.519    0.20E-04    0.72E-04    0.47E-07
   1      8    11.508     2.150    0.27E-04    0.11E-03    0.89E-07
   2      7    11.508     2.976    0.19E-03    0.33E-03    0.16E-06
   2      7    11.508     1.494    0.14E-03    0.29E-03    0.14E-06
  PAW_PBE Li_sv_GW 25Mar2010            :
  PAW_PBE P_GW 19Mar2012                :
  PAW_PBE S_GW 19Mar2012                :
  PAW_PBE Cl_GW 19Mar2012               :

 POSCAR: Li24 P4 S20 Cl4
  positions in direct lattice
 exchange correlation table for  LEXCH =        8
   RHO(1)=    0.500       N(1)  =     2000
   RHO(2)=  100.500       N(2)  =     4000

 VTST: version 4.1, (05/19/21)

 CHAIN: initializing optimizer

 OPT: Using VASP QUASI-newton optimizer
 CHAIN: Read ICHAIN            0

 POSCAR: Li24 P4 S20 Cl4
  positions in direct lattice

 ion  position               nearest neighbor table
   1  0.977  0.250  0.250-
   2  0.977  0.750  0.750-
   3  0.023  0.250  0.750-
   4  0.023  0.750  0.250-
   5  0.250  0.250  0.977-
   6  0.250  0.750  0.023-
   7  0.750  0.250  0.023-
   8  0.750  0.750  0.977-
   9  0.250  0.977  0.250-
  10  0.250  0.023  0.750-
  11  0.750  0.977  0.750-
  12  0.750  0.023  0.250-
  13  0.250  0.750  0.477-
  14  0.250  0.250  0.523-
  15  0.750  0.750  0.523-
  16  0.750  0.250  0.477-
  17  0.250  0.477  0.750-
  18  0.250  0.523  0.250-
  19  0.750  0.477  0.250-
  20  0.750  0.523  0.750-
  21  0.477  0.250  0.750-
  22  0.477  0.750  0.250-
  23  0.523  0.250  0.250-
  24  0.523  0.750  0.750-
  25  0.500  0.500  0.500-  44 2.05  43 2.05  41 2.05  42 2.05
  26  0.500  1.000  1.000-  40 2.05  39 2.05  37 2.05  38 2.05
  27  1.000  0.500  0.000-  34 2.05  33 2.05  35 2.05  36 2.05
  28  1.000  0.000  0.500-  31 2.05  32 2.05  29 2.05  30 2.05
  29  0.118  0.882  0.618-  28 2.05
  30  0.118  0.118  0.382-  28 2.05
  31  0.882  0.882  0.382-  28 2.05
  32  0.882  0.118  0.618-  28 2.05
  33  0.882  0.618  0.118-  27 2.05
  34  0.882  0.382  0.882-  27 2.05
  35  0.118  0.618  0.882-  27 2.05
  36  0.118  0.382  0.118-  27 2.05
  37  0.618  0.118  0.882-  26 2.05
  38  0.618  0.882  0.118-  26 2.05
  39  0.382  0.118  0.118-  26 2.05
  40  0.382  0.882  0.882-  26 2.05
  41  0.618  0.618  0.382-  25 2.05
  42  0.618  0.382  0.618-  25 2.05
  43  0.382  0.618  0.618-  25 2.05
  44  0.382  0.382  0.382-  25 2.05
  45  0.750  0.750  0.750-
  46  0.750  0.250  0.250-
  47  0.250  0.750  0.250-
  48  0.250  0.250  0.750-
  49  1.000  0.000  0.000-
  50  1.000  0.500  0.500-
  51  0.500  1.000  0.500-
  52  0.500  0.500  1.000-

  LATTYP: Found a simple cubic cell.
 ALAT       =    10.0286120784

  Lattice vectors:

 A1 = (  10.0286120784,   0.0000000000,   0.0000000000)
 A2 = (   0.0000000000,  10.0286120784,   0.0000000000)
 A3 = (   0.0000000000,   0.0000000000,  10.0286120784)

Analysis of symmetry for initial positions (statically):
 Subroutine PRICEL returns following result:

  LATTYP: Found a simple tetragonal cell.
 ALAT       =     7.0912996066
 C/A-ratio  =     1.4142135624

[...]

   2 primitive cells build up your supercell.

 Routine SETGRP: Setting up the symmetry group for a
 simple cubic supercell.

 Subroutine GETGRP returns: Found  2 space group operations
 (whereof  2 operations were pure point group operations)
 out of a pool of 48 trial point group operations.

The static configuration has the point symmetry C_1h.

Analysis of symmetry for dynamics (positions and initial velocities):
 Subroutine PRICEL returns following result:

[...]

The dynamic configuration has the point symmetry C_1h.

Analysis of structural, dynamic, and magnetic symmetry:
 Subroutine PRICEL returns following result:

  LATTYP: Found a simple tetragonal cell.
 ALAT       =     7.0912996066
 C/A-ratio  =     1.4142135624

  Lattice vectors:

 A1 = (   0.0000000000,   5.0143060392,  -5.0143060392)
 A2 = (   0.0000000000,   5.0143060392,   5.0143060392)
 A3 = (  10.0286120784,   0.0000000000,   0.0000000000)

   2 primitive cells build up your supercell.

 Routine SETGRP: Setting up the symmetry group for a
 simple cubic supercell.

 Subroutine GETGRP returns: Found  2 space group operations
 (whereof  2 operations were pure point group operations)
 out of a pool of 48 trial point group operations.

The overall configuration has the point symmetry C_1h.

 Subroutine INISYM returns: Found  2 space group operations
 (whereof  2 operations are pure point group operations),
 and found     2 'primitive' translations

                                     Primitive cell

  volume of cell :     504.3041

  direct lattice vectors                    reciprocal lattice vectors
     0.000000000  5.014306039 -5.014306039     0.000000000  0.099714696 -0.099714696
     0.000000000  5.014306039  5.014306039     0.000000000  0.099714696  0.099714696
    10.028612078  0.000000000  0.000000000     0.099714696  0.000000000  0.000000000

  length of vectors
     7.091299607  7.091299607 10.028612078     0.141017875  0.141017875  0.099714696

  position of ions in fractional coordinates (direct lattice)
     0.000000000  0.499895929  0.977051400
     0.500000000  0.000419449  0.022694806
     0.273195130  0.226626350  0.249985662
     0.726865983  0.773374601  0.249868243
     0.226581263  0.273217273  0.749979107
     0.773258258  0.726599869  0.750021841
     0.726804870  0.226626350  0.249985662
     0.273134017  0.773374601  0.249868243
     0.226741742  0.726599869  0.750021841
     0.773418737  0.273217273  0.749979107
     0.500000000  0.999955027  0.476668193
     0.000000000  0.499932478  0.523178628
     0.000000000  0.999893524  0.500198385
     0.500000000  0.500173934  0.999916723
     0.263971646  0.499988574  0.118202299
     0.736028354  0.499988574  0.118202299
     0.500000000  0.264374720  0.881627014
     0.500000000  0.736253077  0.881845353
     0.236211794  0.999895093  0.618278940
     0.763788206  0.999895093  0.618278940
     1.000000000  0.235935302  0.382060929
     0.000000000  0.763920404  0.382034302
     0.000000000  0.499983299  0.750116376
     0.500000000  0.999975725  0.249671515
     0.000000000  0.000006139  0.999983633
     0.500000000  0.499877474  0.500280558

  ion indices of the primitive-cell ions
   primitive index   ion index
                 1           1
                 2           3
                 3           5
                 4          14
                 5           7
                 6          16
                 7           9
                 8          18
                 9          19
                10          12
                11          21
                12          23
                13          25
                14          27
                15          36
                16          30
                17          31
                18          32
                19          41
                20          42
                21          39
                22          44
                23          46
                24          47
                25          49
                26          52

 KPOINTS: Automatic mesh

Automatic generation of k-mesh.
 Grid dimensions read from file:
 generate k-points for:    2    2    2

 Generating k-lattice:

  Cartesian coordinates                     Fractional coordinates (reciprocal lattice)
[...]
     13     -43.3049      1.00000
     14     -43.3045      1.00000
     15     -43.3042      1.00000
     16     -43.3041      1.00000
     17     -43.3033      1.00000
     18     -43.3032      1.00000
     19     -43.3032      1.00000
     20     -43.3032      1.00000
     21     -43.3031      1.00000
     22     -43.3030      1.00000
     23     -43.3015      1.00000
     24     -43.3011      1.00000
     25     -14.1275      1.00000
     26     -14.1127      1.00000
     27     -14.1126      1.00000
     28     -14.1126      1.00000
     29     -11.2711      1.00000
     30     -11.2702      1.00000
     31     -11.2700      1.00000
     32     -11.2084      1.00000
     33     -11.1437      1.00000
     34     -11.1431      1.00000
     35     -11.1425      1.00000
     36     -11.1188      1.00000
     37     -11.1178      1.00000
     38     -11.1178      1.00000
     39     -11.1171      1.00000
     40     -11.1162      1.00000
     41     -11.0873      1.00000
     42     -11.0818      1.00000
     43     -11.0805      1.00000
     44     -11.0799      1.00000
     45      -9.6600      1.00000
     46      -9.6600      1.00000
     47      -9.6600      1.00000
     48      -9.6564      1.00000
     49      -7.1190      1.00000
     50      -6.8297      1.00000
     51      -6.8294      1.00000
     52      -6.8289      1.00000
     53      -4.1741      1.00000
     54      -4.1734      1.00000
     55      -4.1733      1.00000
     56      -3.8923      1.00000
     57      -3.7317      1.00000
     58      -3.7313      1.00000
     59      -3.6322      1.00000
     60      -3.6314      1.00000
[...]
    162       8.2646      0.00000
    163       8.3284      0.00000
    164       8.4210      0.00000
    165       8.4270      0.00000
    166       8.4870      0.00000
    167       8.5071      0.00000
    168       8.6187      0.00000
    169       8.6673      0.00000
    170       8.7668      0.00000
    171       8.8819      0.00000
    172       8.8830      0.00000
    173       8.9850      0.00000
    174       9.2533      0.00000
    175       9.4497      0.00000
    176       9.6688      0.00000

[...]

 soft charge-density along one line, spin component           2
         0         1         2         3         4         5         6         7         8         9
 total charge-density along one line

------------------------ aborting loop because EDIFF is reached ----------------------------------------

         DFTD3 V3.0 Rev 1
 Edisp (eV)  -12.07659

 E6    (eV) :    -7.4367
 E8    (eV) :    -4.6399
 % E8        : 38.42

  FORCE on cell =-STRESS in cart. coord.  units (eV):
  Direction    XX          YY          ZZ          XY          YZ          ZX
  Alpha Z   269.14069   269.14069   269.14069
  Ewald   -2758.49881 -2757.38829 -2757.38829     0.13792     0.72178     0.13792
  Hartree   844.50228   845.13187   845.13187     0.07703     0.35011     0.07703
  E(xc)    -946.81602  -946.81625  -946.81625    -0.00010    -0.00028    -0.00010
  Local   -1761.06031 -1762.92091 -1762.92091    -0.21886    -1.09584    -0.21886
  n-local  1480.94096  1481.01968  1481.01963    -0.28368     0.04051     0.29873
  augment  -356.02597  -356.04935  -356.04935    -0.00133    -0.00700    -0.00131
  Kinetic  3239.99060  3240.24486  3240.24493    -0.51027     0.05437     0.53055
  Fock        0.00000     0.00000     0.00000     0.00000     0.00000     0.00000
  vdW       -12.82991   -12.82965   -12.82965    -0.00004    -0.00031    -0.00004
  Total      -0.65650    -0.46736    -0.46736     0.01230     0.06334     0.01230
  in kB      -1.04285    -0.74240    -0.74240     0.01954     0.10061     0.01954

 VOLUME and BASIS-vectors are now :
  energy-cutoff  :      520.00
  volume of cell :     1008.61
      direct lattice vectors                 reciprocal lattice vectors
    10.028612078  0.000000000  0.000000000     0.099714696  0.000000000  0.000000000
     0.000000000 10.028612078  0.000000000     0.000000000  0.099714696  0.000000000
     0.000000000  0.000000000 10.028612078     0.000000000  0.000000000  0.099714696

  length of vectors
    10.028612078 10.028612078 10.028612078     0.099714696  0.099714696  0.099714696

 FORCES acting on ions
    electron-ion (+dipol)            ewald-force                    non-local-force                 convergence-correction
   -.685E+01 0.110E-01 0.110E-01   0.615E+01 -.103E-01 -.103E-01   0.688E+00 -.108E-02 -.108E-02   -.737E-03 0.210E-03 0.210E-03
   -.685E+01 0.110E-01 0.110E-01   0.615E+01 -.103E-01 -.103E-01   0.688E+00 -.108E-02 -.108E-02   -.737E-03 0.210E-03 0.210E-03
   0.666E+01 0.211E-02 0.211E-02   -.597E+01 -.590E-02 -.590E-02   -.681E+00 0.275E-02 0.275E-02   -.452E-02 0.220E-03 0.220E-03
   0.666E+01 0.211E-02 0.211E-02   -.597E+01 -.590E-02 -.590E-02   -.681E+00 0.275E-02 0.275E-02   -.452E-02 0.220E-03 0.220E-03
   -.530E-01 -.120E-02 -.687E+01   0.505E-01 0.449E-02 0.617E+01   0.204E-02 -.333E-02 0.699E+00   -.230E-03 0.246E-03 -.134E-02
   -.546E-01 -.377E-01 0.685E+01   0.519E-01 0.325E-01 -.614E+01   0.187E-02 0.617E-02 -.697E+00   -.101E-03 -.880E-03 0.894E-03
   -.648E-02 0.614E-01 0.685E+01   0.494E-02 -.558E-01 -.615E+01   0.333E-03 -.566E-02 -.696E+00   0.452E-03 -.155E-03 -.202E-03
   0.290E-01 -.200E-01 -.683E+01   -.295E-01 0.198E-01 0.613E+01   -.892E-03 -.198E-03 0.693E+00   0.516E-03 0.372E-03 0.968E-04
   -.530E-01 -.687E+01 -.120E-02   0.505E-01 0.617E+01 0.449E-02   0.204E-02 0.699E+00 -.333E-02   -.230E-03 -.134E-02 0.246E-03
   -.546E-01 0.685E+01 -.377E-01   0.519E-01 -.614E+01 0.325E-01   0.187E-02 -.697E+00 0.617E-02   -.101E-03 0.894E-03 -.880E-03
   0.290E-01 -.683E+01 -.200E-01   -.295E-01 0.613E+01 0.198E-01   -.892E-03 0.693E+00 -.198E-03   0.516E-03 0.968E-04 0.372E-03
   -.648E-02 0.685E+01 0.614E-01   0.494E-02 -.615E+01 -.558E-01   0.333E-03 -.696E+00 -.566E-02   0.452E-03 -.202E-03 -.155E-03
   -.530E-01 -.120E-02 -.687E+01   0.505E-01 0.449E-02 0.617E+01   0.204E-02 -.333E-02 0.699E+00   -.230E-03 0.246E-03 -.134E-02
   -.546E-01 -.377E-01 0.685E+01   0.519E-01 0.325E-01 -.614E+01   0.187E-02 0.617E-02 -.697E+00   -.101E-03 -.880E-03 0.894E-03
   -.648E-02 0.614E-01 0.685E+01   0.494E-02 -.558E-01 -.615E+01   0.333E-03 -.566E-02 -.696E+00   0.452E-03 -.155E-03 -.202E-03
   0.290E-01 -.200E-01 -.683E+01   -.295E-01 0.198E-01 0.613E+01   -.892E-03 -.198E-03 0.693E+00   0.516E-03 0.372E-03 0.968E-04
   -.530E-01 -.687E+01 -.120E-02   0.505E-01 0.617E+01 0.449E-02   0.204E-02 0.699E+00 -.333E-02   -.230E-03 -.134E-02 0.246E-03
   -.546E-01 0.685E+01 -.377E-01   0.519E-01 -.614E+01 0.325E-01   0.187E-02 -.697E+00 0.617E-02   -.101E-03 0.894E-03 -.880E-03
   0.290E-01 -.683E+01 -.200E-01   -.295E-01 0.613E+01 0.198E-01   -.892E-03 0.693E+00 -.198E-03   0.516E-03 0.968E-04 0.372E-03
   -.648E-02 0.685E+01 0.614E-01   0.494E-02 -.615E+01 -.558E-01   0.333E-03 -.696E+00 -.566E-02   0.452E-03 -.202E-03 -.155E-03
   -.669E+01 0.132E-01 0.132E-01   0.600E+01 -.127E-01 -.127E-01   0.686E+00 -.285E-03 -.285E-03   0.597E-03 -.192E-03 -.192E-03
   -.669E+01 0.132E-01 0.132E-01   0.600E+01 -.127E-01 -.127E-01   0.686E+00 -.285E-03 -.285E-03   0.597E-03 -.192E-03 -.192E-03
   0.690E+01 -.638E-02 -.638E-02   -.620E+01 0.666E-02 0.666E-02   -.687E+00 -.383E-03 -.383E-03   -.475E-03 0.319E-04 0.319E-04
   0.690E+01 -.638E-02 -.638E-02   -.620E+01 0.666E-02 0.666E-02   -.687E+00 -.383E-03 -.383E-03   -.475E-03 0.319E-04 0.319E-04
   0.309E-01 0.764E-02 0.764E-02   -.352E-01 -.986E-02 -.986E-02   -.177E-02 0.250E-02 0.250E-02   0.269E-02 0.465E-03 0.465E-03
   0.309E-01 0.764E-02 0.764E-02   -.352E-01 -.986E-02 -.986E-02   -.177E-02 0.250E-02 0.250E-02   0.269E-02 0.465E-03 0.465E-03
   -.215E+00 -.342E-01 -.342E-01   0.204E+00 0.339E-01 0.339E-01   0.120E-01 -.861E-03 -.861E-03   0.305E-02 0.139E-03 0.139E-03
   -.215E+00 -.342E-01 -.342E-01   0.204E+00 0.339E-01 0.339E-01   0.120E-01 -.861E-03 -.861E-03   0.305E-02 0.139E-03 0.139E-03
   -.453E+02 0.451E+02 -.450E+02   0.486E+02 -.484E+02 0.483E+02   -.331E+01 0.330E+01 -.329E+01   -.225E-02 0.586E-02 -.481E-02
   -.453E+02 -.450E+02 0.451E+02   0.486E+02 0.483E+02 -.484E+02   -.331E+01 -.329E+01 0.330E+01   -.225E-02 -.481E-02 0.586E-02
   0.451E+02 0.451E+02 0.451E+02   -.484E+02 -.484E+02 -.484E+02   0.331E+01 0.328E+01 0.328E+01   -.500E-02 -.300E-02 -.300E-02
   0.450E+02 -.452E+02 -.452E+02   -.483E+02 0.484E+02 0.484E+02   0.331E+01 -.329E+01 -.329E+01   -.421E-02 0.342E-02 0.342E-02
   0.450E+02 -.452E+02 -.452E+02   -.483E+02 0.484E+02 0.484E+02   0.331E+01 -.329E+01 -.329E+01   -.421E-02 0.342E-02 0.342E-02
   0.451E+02 0.451E+02 0.451E+02   -.484E+02 -.484E+02 -.484E+02   0.331E+01 0.328E+01 0.328E+01   -.500E-02 -.300E-02 -.300E-02
   -.453E+02 -.450E+02 0.451E+02   0.486E+02 0.483E+02 -.484E+02   -.331E+01 -.329E+01 0.330E+01   -.225E-02 -.481E-02 0.586E-02
   -.453E+02 0.451E+02 -.450E+02   0.486E+02 -.484E+02 0.483E+02   -.331E+01 0.330E+01 -.329E+01   -.225E-02 0.586E-02 -.481E-02
   -.449E+02 -.451E+02 0.452E+02   0.482E+02 0.484E+02 -.485E+02   -.330E+01 -.330E+01 0.330E+01   0.404E-02 -.191E-02 0.179E-02
   -.449E+02 0.452E+02 -.451E+02   0.482E+02 -.485E+02 0.484E+02   -.330E+01 0.330E+01 -.330E+01   0.404E-02 0.179E-02 -.191E-02
   0.452E+02 -.452E+02 -.452E+02   -.485E+02 0.485E+02 0.485E+02   0.329E+01 -.329E+01 -.329E+01   0.250E-02 -.313E-03 -.313E-03
   0.452E+02 0.452E+02 0.452E+02   -.485E+02 -.485E+02 -.485E+02   0.329E+01 0.329E+01 0.329E+01   0.506E-03 -.129E-02 -.129E-02
   -.449E+02 -.451E+02 0.452E+02   0.482E+02 0.484E+02 -.485E+02   -.330E+01 -.330E+01 0.330E+01   0.404E-02 -.191E-02 0.179E-02
   -.449E+02 0.452E+02 -.451E+02   0.482E+02 -.485E+02 0.484E+02   -.330E+01 0.330E+01 -.330E+01   0.404E-02 0.179E-02 -.191E-02
   0.452E+02 -.452E+02 -.452E+02   -.485E+02 0.485E+02 0.485E+02   0.329E+01 -.329E+01 -.329E+01   0.250E-02 -.313E-03 -.313E-03
   0.452E+02 0.452E+02 0.452E+02   -.485E+02 -.485E+02 -.485E+02   0.329E+01 0.329E+01 0.329E+01   0.506E-03 -.129E-02 -.129E-02
   -.277E-01 -.350E-01 -.350E-01   0.316E-01 0.365E-01 0.365E-01   -.372E-02 -.164E-02 -.164E-02   -.704E-03 0.345E-04 0.345E-04
   -.277E-01 -.350E-01 -.350E-01   0.316E-01 0.365E-01 0.365E-01   -.372E-02 -.164E-02 -.164E-02   -.704E-03 0.345E-04 0.345E-04
   -.440E-01 0.313E-01 0.313E-01   0.373E-01 -.326E-01 -.326E-01   0.138E-01 0.205E-02 0.205E-02   -.386E-02 -.530E-03 -.530E-03
   -.440E-01 0.313E-01 0.313E-01   0.373E-01 -.326E-01 -.326E-01   0.138E-01 0.205E-02 0.205E-02   -.386E-02 -.530E-03 -.530E-03
   -.137E+00 0.920E-02 0.920E-02   0.135E+00 -.109E-01 -.109E-01   0.627E-02 0.271E-02 0.271E-02   -.432E-02 -.821E-03 -.821E-03
   -.137E+00 0.920E-02 0.920E-02   0.135E+00 -.109E-01 -.109E-01   0.627E-02 0.271E-02 0.271E-02   -.432E-02 -.821E-03 -.821E-03
   0.468E+00 -.484E-01 -.484E-01   -.472E+00 0.490E-01 0.490E-01   0.310E-02 -.121E-02 -.121E-02   0.882E-03 0.444E-03 0.444E-03
   0.468E+00 -.484E-01 -.484E-01   -.472E+00 0.490E-01 0.490E-01   0.310E-02 -.121E-02 -.121E-02   0.882E-03 0.444E-03 0.444E-03
   -.682E-01 -.215E-02 -.214E-02   0.568E-13 0.268E-13 -.140E-13   0.620E-01 -.344E-02 -.344E-02   -.175E-01 -.243E-02 -.243E-02

 POSITION                                       TOTAL-FORCE (eV/Angst)
      9.79806      2.50662      2.50662        -0.000799     -0.000049     -0.000049
      9.79806      7.52092      7.52092        -0.000799     -0.000049     -0.000049
      0.22835      2.50919      7.52350         0.007934     -0.000680     -0.000680
      0.22835      7.52350      2.50919         0.007934     -0.000680     -0.000680
      2.50701      2.50624      9.79527        -0.000264      0.000360      0.001173
      2.50581      7.52283      0.23310        -0.000520      0.000179     -0.000451
      7.52128      2.50626      0.23368        -0.000268     -0.000032     -0.000261
      7.52167      7.52064      9.79484        -0.000345      0.000191      0.000617
      2.50701      9.79527      2.50624        -0.000264      0.001173      0.000360
      2.50581      0.23310      7.52283        -0.000520     -0.000451      0.000179
      7.52167      9.79484      7.52064        -0.000345      0.000617      0.000191
      7.52128      0.23368      2.50626        -0.000268     -0.000261     -0.000032
      2.50701      7.52054      4.78096        -0.000264      0.000360      0.001173
      2.50581      2.50852      5.24741        -0.000520      0.000179     -0.000451
      7.52128      7.52056      5.24799        -0.000268     -0.000032     -0.000261
      7.52167      2.50634      4.78053        -0.000345      0.000191      0.000617
      2.50701      4.78096      7.52054        -0.000264      0.001173      0.000360
      2.50581      5.24741      2.50852        -0.000520     -0.000451      0.000179
      7.52167      4.78053      2.50634        -0.000345      0.000617      0.000191
      7.52128      5.24799      7.52056        -0.000268     -0.000261     -0.000032
      4.78032      2.50694      7.52125         0.000936      0.000210      0.000210
      4.78032      7.52125      2.50694         0.000936      0.000210      0.000210
      5.24708      2.50684      2.50684         0.002962      0.000085      0.000085
      5.24708      7.52115      7.52115         0.002962      0.000085      0.000085
      5.01600      5.01389      5.01389        -0.002868      0.000902      0.000902
      5.01600     10.02819     10.02819        -0.002868      0.000902      0.000902
     10.02834      5.01507      0.00077         0.004321     -0.000857     -0.000857
     10.02834      0.00077      5.01507         0.004321     -0.000857     -0.000857
      1.18493      8.84506      6.19774        -0.002816      0.000019     -0.000058
      1.18493      1.18343      3.83076        -0.002816     -0.000058      0.000019
      8.84186      8.84683      3.83253         0.001401     -0.003480     -0.003480
      8.84416      1.18463      6.19893         0.002003      0.001071      0.001071
      8.84416      6.19893      1.18463         0.002003      0.001071      0.001071
      8.84186      3.83253      8.84683         0.001401     -0.003480     -0.003480
      1.18493      6.19774      8.84506        -0.002816     -0.000058      0.000019
      1.18493      3.83076      1.18343        -0.002816      0.000019     -0.000058
      6.19981      1.18370      8.84389        -0.004109     -0.000768      0.001185
      6.19981      8.84389      1.18370        -0.004109      0.001185     -0.000768
      3.83149      1.18325      1.18325        -0.001600      0.002005      0.002005
      3.83123      8.84465      8.84465        -0.001933     -0.002091     -0.002091
      6.19981      6.19801      3.82958        -0.004109     -0.000768      0.001185
      6.19981      3.82958      6.19801        -0.004109      0.001185     -0.000768
      3.83149      6.19756      6.19756        -0.001600      0.002005      0.002005
      3.83123      3.83034      3.83034        -0.001933     -0.002091     -0.002091
      7.52256      7.52137      7.52137        -0.000036      0.000124      0.000124
      7.52256      2.50706      2.50706        -0.000036      0.000124      0.000124
      2.50432      7.52136      2.50706         0.003617      0.000316      0.000316
      2.50432      2.50706      7.52136         0.003617      0.000316      0.000316
     10.02857      0.00009      0.00009         0.000639      0.000280      0.000280
     10.02857      5.01440      5.01440         0.000639      0.000280      0.000280
      5.01722     10.02797      5.01366         0.000070      0.000010      0.000010
      5.01722      5.01366     10.02797         0.000070      0.000010      0.000010
    total drift:                               -0.023701     -0.008007     -0.008005

  FREE ENERGIE OF THE ION-ELECTRON SYSTEM (eV)
  free  energy   TOTEN  =      -268.23441117 eV

  energy  without entropy=     -268.23441117  energy(sigma->0) =     -268.23441117

 d Force = 0.2817497E-04[ 0.566E-05, 0.507E-04]  d Energy = 0.3629015E-04-0.812E-05
 d Force = 0.1004038E-01[ 0.994E-02, 0.101E-01]  d Ewald  = 0.1004037E-01 0.749E-08

 stress matrix after NEB project (eV)
     -0.65650      0.01230      0.01230
      0.01230     -0.46736      0.06334
      0.01230      0.06334     -0.46736
  FORCES: max atom, RMS     0.007992    0.002993
  FORCE total and by dimension    0.021581    0.007934
  Stress total and by dimension    0.936198    0.656497
 Quasi-Newton relaxation of ions (Broydens 2nd method)
  g(Force)  = 0.225E-04   g(Stress)= 0.000E+00

 retain information from N=  2 steps
 eigenvalues of (default step * inverse Hessian matrix)
  average eigenvalue of G=   1.9578
 eigenvalue spectrum of G is  0.4884  3.4272

 reached required accuracy - stopping structural energy minimisation