 vasp.6.4.1 05Apr23 (build Jun 07 2023 15:38:11) complex

 executed on             LinuxIFC date 2023.10.23  15:05:20

 INCAR:
   GGA = PE
   PREC = Accu
   EDIFF = 1.e-6
   EDIFFG = -1.e-3
   ENCUT = 520.
   NELM = 100
   NELMDL = -10
   LASPH = .TRUE.
   LREAL = Auto
   LMAXMIX = 4
   ISPIN = 2
   LDIAG = .TRUE.
   LPLANE = .TRUE.
   IVDW = 12
   SIGMA = 0.03
   ISMEAR = 0
   NSW = 1000    number of steps for IOM
   IBRION = 2    ionic relax: 0-MD 1-quasi-New 2-CG
   ISIF = 2    ionic relaxation + stress tensor calcn.
   LCHARG = .FALSE.
   LWAVE = .FALSE.
   ALGO = F
   KPAR = 1
   NPAR = 4
   POTIM = 0.2

 POTCAR:    PAW_PBE Li_sv_GW 25Mar2010
 POTCAR:    PAW_PBE P_GW 19Mar2012
 POTCAR:    PAW_PBE S_GW 19Mar2012
 POTCAR:    PAW_PBE Cl_GW 19Mar2012
|           W    W    AA    RRRRR   N    N  II  N    N   GGGG   !!!           |
|           W    W   A  A   R    R  NN   N  II  NN   N  G    G  !!!           |
|           W    W  A    A  R    R  N N  N  II  N N  N  G       !!!           |
|           W WW W  AAAAAA  RRRRR   N  N N  II  N  N N  G  GGG   !            |
|           WW  WW  A    A  R   R   N   NN  II  N   NN  G    G                |
|           W    W  A    A  R    R  N    N  II  N    N   GGGG   !!!           |
|     You use a magnetic or noncollinear calculation, but did not specify     |
|     the initial magnetic moment with the MAGMOM tag. Note that a            |
|     default of 1 will be used for all atoms. This ferromagnetic setup       |
|     may break the symmetry of the crystal, in particular it may rule        |
|     out finding an antiferromagnetic solution. Thence, we recommend         |
|     setting the initial magnetic moment manually or verifying carefully     |
|     that this magnetic setup is desired.                                    |

   TITEL  = PAW_PBE Li_sv_GW 25Mar2010
   POMASS =    7.010; ZVAL   =    3.000    mass and valenz
   ENMAX  =  433.699; ENMIN  =  325.274 eV

   TITEL  = PAW_PBE P_GW 19Mar2012
   POMASS =   30.974; ZVAL   =    5.000    mass and valenz
   ENMAX  =  255.040; ENMIN  =  191.280 eV

[...]

   TITEL  = PAW_PBE Cl_GW 19Mar2012
   POMASS =   35.453; ZVAL   =    7.000    mass and valenz
   ENMAX  =  262.472; ENMIN  =  196.854 eV

 Optimization of the real space projectors (new method)

 maximal supplied QI-value         = 25.13
 optimisation between [QCUT,QGAM] = [ 11.56, 23.12] = [ 37.43,149.72] Ry
 Optimized for a Real-space Cutoff    1.28 Angstroem

   l    n(q)    QCUT    max X(q) W(low)/X(q) W(high)/X(q)  e(spline)
   0      9    11.561    87.733    0.11E-03    0.32E-04    0.56E-06
   0      9    11.561    82.800    0.11E-03    0.35E-04    0.56E-06
   0      9    11.561     2.509    0.22E-03    0.42E-04    0.79E-06
   1      8    11.561    12.580    0.94E-04    0.26E-03    0.21E-06
   1      8    11.561     1.319    0.33E-04    0.15E-03    0.19E-06
   2      8    11.561     1.993    0.36E-04    0.89E-04    0.26E-06
 Optimization of the real space projectors (new method)

[...]

   l    n(q)    QCUT    max X(q) W(low)/X(q) W(high)/X(q)  e(spline)
   0     10    11.508     7.541    0.34E-04    0.13E-04    0.69E-07
   0     10    11.508     1.809    0.49E-04    0.27E-04    0.14E-06
   1     10    11.508     4.107    0.27E-05    0.41E-05    0.14E-06
   1     10    11.508     2.196    0.26E-05    0.25E-05    0.22E-06
   2      9    11.508     4.265    0.18E-03    0.11E-03    0.81E-06
   2      9    11.508     1.925    0.97E-04    0.76E-04    0.47E-06
 Optimization of the real space projectors (new method)

 maximal supplied QI-value         = 19.84
 optimisation between [QCUT,QGAM] = [ 11.51, 23.22] = [ 37.09,150.92] Ry
 Optimized for a Real-space Cutoff    1.21 Angstroem

   l    n(q)    QCUT    max X(q) W(low)/X(q) W(high)/X(q)  e(spline)
   0      8    11.508     6.761    0.57E-04    0.57E-04    0.35E-07
   0      8    11.508     1.642    0.14E-03    0.14E-03    0.91E-07
   1      8    11.508     3.519    0.20E-04    0.72E-04    0.47E-07
   1      8    11.508     2.150    0.27E-04    0.11E-03    0.89E-07
   2      7    11.508     2.976    0.19E-03    0.33E-03    0.16E-06
   2      7    11.508     1.494    0.14E-03    0.29E-03    0.14E-06
  PAW_PBE Li_sv_GW 25Mar2010            :
  PAW_PBE P_GW 19Mar2012                :
  PAW_PBE S_GW 19Mar2012                :
  PAW_PBE Cl_GW 19Mar2012               :

 POSCAR: Li24 P4 S20 Cl4
  positions in direct lattice
  velocities in cartesian coordinates
 exchange correlation table for  LEXCH =        8
   RHO(1)=    0.500       N(1)  =     2000
   RHO(2)=  100.500       N(2)  =     4000

 VTST: version 4.1, (05/19/21)

 CHAIN: initializing optimizer

 OPT: Using VASP Conjugate-Gradient optimizer
 CHAIN: Read ICHAIN            0

 POSCAR: Li24 P4 S20 Cl4
  positions in direct lattice
  velocities in cartesian coordinates

 ion  position               nearest neighbor table
   1  0.976  0.192  0.199-
   2  0.977  0.706  0.700-
   3  0.013  0.208  0.784-
   4  0.020  0.677  0.277-
   5  0.176  0.452  0.659-
   6  0.328  0.679  0.009-
   7  0.786  0.201  0.006-
   8  0.819  0.848  0.947-
   9  0.168  0.953  0.168-
  10  0.202  0.015  0.822-
  11  0.702  0.996  0.662-
  12  0.695  0.042  0.315-
  13  0.225  0.720  0.470-
  14  0.326  0.145  0.531-
  15  0.787  0.700  0.500-
  16  0.834  0.344  0.448-
  17  0.276  0.301  0.971-
  18  0.292  0.507  0.225-
  19  0.695  0.487  0.160-
  20  0.683  0.552  0.805-
  21  0.473  0.312  0.776-
  22  0.466  0.823  0.295-
  23  0.516  0.272  0.198-
  24  0.517  0.799  0.663-
  25  0.504  0.491  0.489-  42 2.04  44 2.05  41 2.06  43 2.06
  26  0.499  0.997  0.984-  38 2.05  40 2.05  37 2.06  39 2.06
  27  0.997  0.507  0.985-  35 2.04  33 2.05  34 2.05  36 2.06
  28  0.008  0.003  0.483-  30 2.04  32 2.05  29 2.06  31 2.06
  29  0.124  0.886  0.618-  28 2.06
  30  0.141  0.113  0.361-  28 2.04
  31  0.888  0.882  0.356-  28 2.06
  32  0.883  0.139  0.589-  28 2.05
  33  0.871  0.643  0.088-  27 2.05
  34  0.869  0.389  0.862-  27 2.05
  35  0.134  0.610  0.862-  27 2.04
  36  0.104  0.386  0.124-  27 2.06
  37  0.613  0.125  0.857-  26 2.06
  38  0.630  0.890  0.112-  26 2.05
  39  0.363  0.106  0.104-  26 2.06
  40  0.387  0.864  0.863-  26 2.05
  41  0.606  0.619  0.354-  25 2.06
  42  0.643  0.389  0.612-  25 2.04
  43  0.379  0.602  0.621-  25 2.06
  44  0.380  0.353  0.386-  25 2.05
  45  0.748  0.769  0.728-
  46  0.750  0.262  0.234-
  47  0.250  0.738  0.233-
  48  0.247  0.238  0.743-
  49  0.993  0.035  0.984-
  50  0.998  0.544  0.494-
  51  0.515  0.981  0.487-
  52  0.481  0.468  0.005-

  LATTYP: Found a simple cubic cell.
 ALAT       =     9.6706694955

  Lattice vectors:

 A1 = (   9.6706694955,   0.0000000000,   0.0000000000)
 A2 = (   0.0000000000,   9.6706694955,   0.0000000000)
 A3 = (   0.0000000000,   0.0000000000,   9.6706694955)

Analysis of symmetry for initial positions (statically):
 Subroutine PRICEL returns:
 Original cell was already a primitive cell.

 Routine SETGRP: Setting up the symmetry group for a
 simple cubic supercell.

 Subroutine GETGRP returns: Found  1 space group operations
 (whereof  1 operations were pure point group operations)
 out of a pool of 48 trial point group operations.

The static configuration has the point symmetry C_1 .

Analysis of symmetry for dynamics (positions and initial velocities):
 Subroutine PRICEL returns:
 Original cell was already a primitive cell.

[...]

The dynamic configuration has the point symmetry C_1 .

Analysis of structural, dynamic, and magnetic symmetry:
 Subroutine PRICEL returns:
 Original cell was already a primitive cell.

 Routine SETGRP: Setting up the symmetry group for a
 simple cubic supercell.

 Subroutine GETGRP returns: Found  1 space group operations
 (whereof  1 operations were pure point group operations)
 out of a pool of 48 trial point group operations.

The overall configuration has the point symmetry C_1 .

 Subroutine INISYM returns: Found  1 space group operations
 (whereof  1 operations are pure point group operations),
 and found     1 'primitive' translations

                                     Primitive cell

  volume of cell :     904.4189

  direct lattice vectors                    reciprocal lattice vectors
     9.670669496  0.000000000  0.000000000     0.103405457  0.000000000  0.000000000
     0.000000000  9.670669496  0.000000000     0.000000000  0.103405457  0.000000000
     0.000000000  0.000000000  9.670669496     0.000000000  0.000000000  0.103405457

  length of vectors
     9.670669496  9.670669496  9.670669496     0.103405457  0.103405457  0.103405457

  position of ions in fractional coordinates (direct lattice)
     0.976089902  0.191865952  0.199094036
     0.976683586  0.705611619  0.699965210
     0.013210965  0.208372774  0.784053480
     0.020238539  0.676752273  0.277187201
     0.176494543  0.451575088  0.659149607
     0.328109183  0.678767730  0.008800403
     0.785942176  0.200571270  0.005983335
     0.818723675  0.848123059  0.947138418
     0.168402974  0.952609261  0.167618038
     0.201625042  0.014681284  0.821688509
     0.702029745  0.996279155  0.661977472
     0.695050561  0.041541354  0.315176896
     0.225054366  0.720088909  0.469636766
     0.326445256  0.144709883  0.530940027
     0.787000518  0.700118627  0.500324367
     0.834107507  0.344079764  0.448456944
     0.276274563  0.301011211  0.970728763
     0.291781530  0.507474021  0.225344423
     0.695271412  0.486709269  0.159580480
     0.683122356  0.552326353  0.804873697
     0.472844264  0.311950061  0.775984651
     0.466334617  0.823182493  0.295136853
     0.516138094  0.271785009  0.197512892
     0.516902195  0.798977095  0.663409688
     0.503810145  0.490771633  0.489043321
     0.499465147  0.996653326  0.983979903
     0.996653199  0.506657682  0.984715704
     0.007788265  0.002512658  0.483364564
     0.124034045  0.886448729  0.618449600
     0.140554165  0.112858788  0.361360001
     0.887696033  0.881940192  0.355708131
     0.882981973  0.138532498  0.588595190
     0.871098343  0.643227464  0.087733140
     0.868913728  0.388995601  0.862368685
     0.134458785  0.609660974  0.861953987
     0.104283093  0.386365720  0.123732607
     0.612615672  0.124668079  0.857350572
     0.629705737  0.890311083  0.112396608
     0.362807859  0.106430188  0.104491824
     0.386803473  0.863801267  0.863177137
     0.606251904  0.619184302  0.353972325
     0.642980473  0.389400163  0.611613325
     0.378577492  0.602299703  0.620556007
     0.380036581  0.352677767  0.386242834
     0.748309192  0.768837922  0.727627945
     0.750401264  0.262477368  0.234041589
     0.250012524  0.738049192  0.233324925
     0.246870984  0.238212365  0.742644154
     0.993323530  0.034711403  0.984418225
     0.997600194  0.543722389  0.494238473
     0.514873208  0.981183517  0.487371237
     0.480516950  0.467535984  0.005049281

  ion indices of the primitive-cell ions
   primitive index   ion index
                 1           1
                 2           2
                 3           3
                 4           4
                 5           5
                 6           6
                 7           7
                 8           8
[...]
     17     -42.3492      1.00000
     18     -42.3307      1.00000
     19     -42.3304      1.00000
     20     -42.3252      1.00000
     21     -42.3101      1.00000
     22     -42.2960      1.00000
     23     -42.2646      1.00000
     24     -42.2230      1.00000
     25     -13.0576      1.00000
     26     -13.0270      1.00000
     27     -12.9895      1.00000
     28     -12.9599      1.00000
     29     -12.6857      1.00000
     30     -12.6769      1.00000
     31     -12.6250      1.00000
     32     -12.5237      1.00000
     33     -10.2887      1.00000
     34     -10.2666      1.00000
     35     -10.2395      1.00000
     36     -10.1381      1.00000
     37     -10.0568      1.00000
     38     -10.0417      1.00000
     39     -10.0289      1.00000
     40      -9.9816      1.00000
     41      -9.9581      1.00000
     42      -9.9491      1.00000
     43      -9.9301      1.00000
     44      -9.8830      1.00000
     45      -8.4231      1.00000
     46      -8.3566      1.00000
     47      -8.3066      1.00000
     48      -8.2965      1.00000
     49      -6.1407      1.00000
     50      -5.7090      1.00000
     51      -5.6891      1.00000
     52      -5.6354      1.00000
     53      -3.2365      1.00000
     54      -3.2219      1.00000
     55      -3.1744      1.00000
     56      -2.8744      1.00000
     57      -2.7101      1.00000
     58      -2.6741      1.00000
     59      -2.5774      1.00000
     60      -2.5308      1.00000
[...]
    162       9.0621      0.00000
    163       9.1558      0.00000
    164       9.2433      0.00000
    165       9.2566      0.00000
    166       9.3244      0.00000
    167       9.3677      0.00000
    168       9.4135      0.00000
    169       9.4631      0.00000
    170       9.5770      0.00000
    171       9.6466      0.00000
    172       9.6603      0.00000
    173       9.7032      0.00000
    174       9.7315      0.00000
    175       9.8360      0.00000
    176       9.8873      0.00000

[...]

 soft charge-density along one line, spin component           2
         0         1         2         3         4         5         6         7         8         9
 total charge-density along one line

------------------------ aborting loop because EDIFF is reached ----------------------------------------

         DFTD3 V3.0 Rev 1
 Edisp (eV)  -13.53172

 E6    (eV) :    -8.3378
 E8    (eV) :    -5.1939
 % E8        : 38.38

  FORCE on cell =-STRESS in cart. coord.  units (eV):
  Direction    XX          YY          ZZ          XY          YZ          ZX
  Alpha Z   300.14577   300.14577   300.14577
  Ewald   -2864.98527 -3008.75219 -2926.35350    -8.21349   -25.09573    49.93030
  Hartree   775.41670   701.84704   744.24641    -7.55413    -8.92587    21.94550
  E(xc)    -947.67738  -947.96069  -947.77576    -0.02238    -0.05636     0.12171
  Local   -1612.05833 -1408.21204 -1523.09310    16.45902    31.50563   -69.02280
  n-local  1481.38567  1482.48502  1480.78018     0.00654    -0.43385     0.65953
  augment  -356.51333  -357.36604  -356.51455    -0.02974    -0.09460     0.10237
  Kinetic  3239.42546  3253.13093  3241.13927     0.03539     2.84145    -2.89274
  Fock        0.00000     0.00000     0.00000     0.00000     0.00000     0.00000
  vdW       -14.34866   -14.34063   -14.33411     0.00217    -0.01329    -0.00687
  Total       0.79063     0.97719    -1.75939     0.68338    -0.27262     0.83700
  in kB       1.40060     1.73109    -3.11677     1.21061    -0.48295     1.48274

 VOLUME and BASIS-vectors are now :
  energy-cutoff  :      520.00
  volume of cell :      904.42
      direct lattice vectors                 reciprocal lattice vectors
     9.670669496  0.000000000  0.000000000     0.103405457  0.000000000  0.000000000
     0.000000000  9.670669496  0.000000000     0.000000000  0.103405457  0.000000000
     0.000000000  0.000000000  9.670669496     0.000000000  0.000000000  0.103405457

  length of vectors
     9.670669496  9.670669496  9.670669496     0.103405457  0.103405457  0.103405457

 FORCES acting on ions
    electron-ion (+dipol)            ewald-force                    non-local-force                 convergence-correction
   -.147E+01 0.216E+01 -.708E+01   0.894E+00 -.839E+00 0.794E+01   0.570E+00 -.132E+01 -.849E+00   0.713E-04 -.264E-04 0.504E-04
   -.580E-01 -.452E+00 -.113E+02   -.613E+00 0.150E+01 0.118E+02   0.671E+00 -.106E+01 -.527E+00   -.139E-03 0.132E-04 -.247E-04
   0.520E+01 0.163E+01 0.600E+01   -.442E+01 -.645E+00 -.709E+01   -.778E+00 -.988E+00 0.109E+01   -.107E-03 -.691E-04 -.585E-05
   0.479E+01 0.701E+01 0.338E+01   -.405E+01 -.602E+01 -.446E+01   -.728E+00 -.996E+00 0.108E+01   -.200E-04 0.107E-03 -.508E-04
   0.102E+02 0.895E+01 0.152E+02   -.894E+01 -.100E+02 -.138E+02   -.123E+01 0.108E+01 -.143E+01   -.287E-04 -.660E-04 -.443E-04
   -.111E+02 -.112E+01 0.345E+01   0.101E+02 0.240E+01 -.314E+01   0.100E+01 -.128E+01 -.304E+00   -.142E-03 -.691E-04 0.459E-03
   0.753E+00 0.523E+01 0.261E+01   -.198E+01 -.424E+01 -.188E+01   0.123E+01 -.992E+00 -.725E+00   0.486E-05 -.140E-03 0.365E-04
   -.104E+02 -.206E+01 -.556E+00   0.937E+01 0.879E+00 -.126E+00   0.102E+01 0.118E+01 0.680E+00   0.686E-04 -.261E-04 0.208E-03
   0.841E+01 0.913E+01 0.119E+02   -.696E+01 -.994E+01 -.104E+02   -.144E+01 0.812E+00 -.146E+01   0.525E-04 -.372E-04 0.164E-04
   0.760E+01 0.129E+02 -.511E+01   -.617E+01 -.121E+02 0.379E+01   -.143E+01 -.746E+00 0.132E+01   0.373E-05 0.824E-04 0.620E-04
   0.112E+01 -.103E+02 0.684E+00   -.175E-01 0.963E+01 0.623E-01   -.111E+01 0.670E+00 -.749E+00   0.246E-04 -.230E-04 -.750E-04
   0.678E+01 -.359E+01 -.553E+01   -.593E+01 0.449E+01 0.443E+01   -.853E+00 -.898E+00 0.110E+01   -.207E-05 -.332E-04 -.826E-04
   -.513E+01 -.182E+01 -.954E+00   0.586E+01 0.234E+01 0.260E+00   -.734E+00 -.526E+00 0.691E+00   -.127E-03 -.441E-04 -.128E-03
   -.897E+01 0.515E+01 -.321E+00   0.803E+01 -.411E+01 0.909E+00   0.933E+00 -.104E+01 -.586E+00   0.554E-04 0.253E-04 -.128E-03
   0.352E+01 0.587E+01 0.670E+01   -.432E+01 -.488E+01 -.582E+01   0.800E+00 -.988E+00 -.875E+00   0.504E-04 0.209E-04 -.180E-03
   -.149E+02 -.731E+01 0.188E+01   0.137E+02 0.596E+01 -.249E+01   0.124E+01 0.135E+01 0.605E+00   -.124E-03 -.809E-04 -.126E-03
   0.276E+00 -.378E+01 -.158E+01   -.115E+01 0.273E+01 0.605E+00   0.877E+00 0.105E+01 0.969E+00   0.909E-04 0.643E-04 0.301E-03
   -.106E+01 0.353E+01 -.299E+01   -.700E-02 -.252E+01 0.390E+01   0.107E+01 -.101E+01 -.905E+00   0.404E-03 -.130E-03 -.379E-03
   0.156E+01 -.110E+02 0.604E+01   -.435E+00 0.104E+02 -.489E+01   -.112E+01 0.609E+00 -.115E+01   -.153E-04 0.850E-04 0.266E-03
   0.159E+02 -.459E+01 -.187E+02   -.143E+02 0.574E+01 0.168E+02   -.168E+01 -.114E+01 0.189E+01   0.487E-03 -.447E-04 -.311E-03
   -.385E+01 -.708E+01 0.351E+01   0.316E+01 0.552E+01 -.424E+01   0.696E+00 0.157E+01 0.722E+00   -.101E-03 -.268E-03 -.143E-03
   0.242E+01 -.608E+01 -.336E+00   -.323E+01 0.491E+01 -.388E+00   0.810E+00 0.117E+01 0.721E+00   0.137E-03 0.435E-05 -.138E-03
   0.460E+00 0.339E+01 -.520E+01   0.339E+00 -.411E+01 0.621E+01   -.796E+00 0.732E+00 -.101E+01   -.147E-03 0.948E-04 -.268E-04
   0.782E+01 -.519E+00 0.177E+00   -.711E+01 -.245E+00 0.956E+00   -.704E+00 0.764E+00 -.113E+01   0.207E-04 0.108E-03 -.151E-03
   -.185E+01 0.531E+01 0.444E+01   0.196E+01 -.579E+01 -.427E+01   -.118E+00 0.484E+00 -.160E+00   0.935E-04 -.141E-03 -.528E-03
   -.334E+01 0.950E+01 0.364E+00   0.339E+01 -.980E+01 -.266E+00   -.484E-01 0.296E+00 -.950E-01   -.109E-03 0.174E-03 0.142E-03
   0.164E+01 -.837E+01 -.363E+01   -.174E+01 0.880E+01 0.336E+01   0.995E-01 -.427E+00 0.276E+00   0.161E-03 -.158E-04 0.277E-03
   -.122E+01 -.501E+01 -.545E+01   0.143E+01 0.541E+01 0.518E+01   -.213E+00 -.391E+00 0.273E+00   -.917E-04 -.149E-03 -.124E-03
   -.447E+02 0.205E+02 -.482E+02   0.481E+02 -.231E+02 0.518E+02   -.345E+01 0.263E+01 -.354E+01   -.171E-03 0.192E-03 -.238E-03
   -.503E+02 -.528E+02 0.216E+02   0.538E+02 0.555E+02 -.238E+02   -.352E+01 -.275E+01 0.223E+01   0.312E-03 0.182E-03 -.381E-03
   0.380E+02 0.298E+02 0.567E+02   -.408E+02 -.321E+02 -.608E+02   0.282E+01 0.225E+01 0.409E+01   -.591E-04 -.108E-04 -.107E-03
   0.347E+02 -.525E+02 -.263E+02   -.382E+02 0.561E+02 0.286E+02   0.345E+01 -.363E+01 -.228E+01   -.638E-04 0.509E-04 -.274E-04
   0.443E+02 -.543E+02 -.270E+02   -.474E+02 0.577E+02 0.292E+02   0.315E+01 -.349E+01 -.224E+01   -.131E-03 0.374E-03 0.414E-03
   0.437E+02 0.223E+02 0.512E+02   -.469E+02 -.244E+02 -.548E+02   0.327E+01 0.205E+01 0.361E+01   0.259E-04 -.133E-03 -.108E-03
   -.447E+02 -.497E+02 0.268E+02   0.484E+02 0.524E+02 -.294E+02   -.367E+01 -.272E+01 0.269E+01   -.150E-03 0.637E-04 0.399E-03
   -.182E+02 0.290E+02 -.651E+02   0.203E+02 -.323E+02 0.694E+02   -.212E+01 0.327E+01 -.426E+01   0.253E-03 0.126E-04 -.140E-03
   -.325E+02 -.333E+02 0.484E+02   0.354E+02 0.368E+02 -.518E+02   -.286E+01 -.343E+01 0.343E+01   -.401E-04 -.204E-03 0.227E-03
   -.429E+02 0.538E+02 -.320E+02   0.463E+02 -.568E+02 0.345E+02   -.344E+01 0.305E+01 -.256E+01   0.399E-03 -.210E-03 0.558E-03
   0.416E+02 -.173E+02 -.513E+02   -.449E+02 0.192E+02 0.550E+02   0.334E+01 -.189E+01 -.375E+01   -.433E-06 0.171E-03 0.316E-03
   0.306E+02 0.510E+02 0.350E+02   -.335E+02 -.543E+02 -.381E+02   0.294E+01 0.331E+01 0.304E+01   -.670E-04 0.314E-03 0.344E-03
   -.327E+02 -.380E+02 0.521E+02   0.352E+02 0.413E+02 -.558E+02   -.251E+01 -.338E+01 0.369E+01   0.645E-04 -.777E-04 -.296E-03
   -.489E+02 0.477E+02 -.271E+02   0.525E+02 -.503E+02 0.296E+02   -.359E+01 0.260E+01 -.251E+01   0.189E-03 -.339E-03 -.300E-03
   0.324E+02 -.283E+02 -.541E+02   -.348E+02 0.303E+02 0.582E+02   0.242E+01 -.208E+01 -.413E+01   -.135E-03 0.217E-03 -.451E-03
   0.494E+02 0.542E+02 0.126E+02   -.532E+02 -.578E+02 -.141E+02   0.380E+01 0.356E+01 0.159E+01   0.654E-04 -.663E-04 -.451E-03
   0.473E+00 0.364E+00 -.238E+02   -.481E+00 -.296E+00 0.242E+02   0.423E-02 -.685E-01 -.405E+00   0.395E-03 0.203E-03 -.199E-03
   -.247E+01 -.599E+01 -.220E+02   0.250E+01 0.613E+01 0.225E+02   -.264E-01 -.143E+00 -.467E+00   -.245E-03 -.584E-04 0.286E-03
   -.147E+01 -.146E+02 0.112E+02   0.151E+01 0.150E+02 -.115E+02   -.344E-01 -.404E+00 0.233E+00   -.135E-03 -.304E-04 -.385E-03
   -.239E+01 0.865E-01 0.266E+02   0.251E+01 -.132E+00 -.271E+02   -.116E+00 0.448E-01 0.490E+00   0.203E-03 -.277E-03 0.476E-04
   0.161E+00 0.403E+02 0.262E+01   -.210E+00 -.409E+02 -.265E+01   0.507E-01 0.584E+00 0.335E-01   0.390E-04 -.247E-03 0.258E-03
   -.483E+01 0.525E+02 0.142E+02   0.495E+01 -.533E+02 -.144E+02   -.113E+00 0.793E+00 0.252E+00   -.414E-03 0.574E-03 -.226E-03
   0.197E+02 -.248E+02 0.469E+01   -.202E+02 0.253E+02 -.473E+01   0.449E+00 -.505E+00 0.424E-01   0.849E-04 0.375E-03 -.185E-03
   -.221E+02 -.338E+02 0.166E+02   0.224E+02 0.342E+02 -.169E+02   -.325E+00 -.374E+00 0.312E+00   -.154E-02 -.722E-03 0.217E-02
   0.207E+01 0.278E+01 0.966E+00   0.142E-13 0.213E-13 -.711E-13   -.205E+01 -.277E+01 -.952E+00   -.546E-03 -.231E-03 0.692E-03

 POSITION                                       TOTAL-FORCE (eV/Angst)
      9.43945      1.85539      1.92531        -0.000003     -0.000023     -0.000024
      9.44515      6.82355      6.76915         0.000070      0.000059      0.000027
      0.12769      2.01514      7.58231         0.000015     -0.000007     -0.000023
      0.19575      6.54461      2.68064         0.000079      0.000035      0.000003
      1.70680      4.36698      6.37439        -0.000033     -0.000023      0.000029
      3.17321      6.56411      0.08514        -0.000108      0.000017     -0.000075
      7.60052      1.93974      0.05778        -0.000059      0.000066     -0.000084
      7.91761      8.20198      9.15939         0.000018      0.000003     -0.000074
      1.62847      9.21235      1.62099        -0.000003     -0.000046     -0.000008
      1.94978      0.14196      7.94639         0.000016     -0.000046     -0.000060
      6.78905      9.63465      6.40178        -0.000072     -0.000079      0.000065
      6.72164      0.40178      3.04801         0.000043      0.000060      0.000035
      2.17666      6.96386      4.54180        -0.000019      0.000055      0.000004
      3.15691      1.39936      5.13460        -0.000039     -0.000091      0.000096
      7.61085      6.77051      4.83851        -0.000004     -0.000112      0.000050
      8.06658      3.32747      4.33683        -0.000139      0.000001      0.000017
      2.67177      2.91111      9.38756        -0.000009     -0.000056     -0.000027
      2.82147      4.90760      2.17967        -0.000100      0.000046     -0.000038
      6.72376      4.70687      1.54325         0.000012     -0.000032     -0.000019
      6.60588      5.34146      7.78414        -0.000018     -0.000012     -0.000040
      4.57268      3.01696      7.50416         0.000018     -0.000057      0.000026
      4.50981      7.96083      2.85407        -0.000062     -0.000056      0.000050
      4.99142      2.62829      1.91002         0.000074     -0.000063     -0.000067
      4.99880      7.72660      6.41550        -0.000029     -0.000080     -0.000042
      4.87220      4.74608      4.72925         0.000345     -0.000089      0.000265
      4.83011      9.63841      9.51565        -0.000089      0.000110     -0.000288
      9.63833      4.89966      9.52293         0.000181      0.000129     -0.000179
      0.07524      0.02421      4.67444         0.000012     -0.000138      0.000159
      1.19940      8.57246      5.98091        -0.000125      0.000116     -0.000120
      1.35923      1.09137      3.49464         0.000169      0.000099     -0.000151
      8.58457      8.52885      3.43990         0.000015      0.000034      0.000059
      8.53895      1.33966      5.69210        -0.000089      0.000043      0.000036
      8.42420      6.22047      0.84840        -0.000325      0.000321      0.000323
      8.40295      3.76192      8.33963         0.000064     -0.000049      0.000004
      1.30039      5.89586      8.33572        -0.000123     -0.000263      0.000127
      1.00854      3.73638      1.19670        -0.000084      0.000072     -0.000223
      5.92432      1.20574      8.29104        -0.000164     -0.000110      0.000085
      6.08967      8.61001      1.08687         0.000332     -0.000191      0.000243
      3.50849      1.02930      1.01043        -0.000023     -0.000002     -0.000092
      3.74063      8.35349      8.34741         0.000101      0.000162      0.000124
      5.86287      5.98801      3.42313        -0.000146     -0.000019     -0.000067
      6.21819      3.76596      5.91469         0.000191     -0.000114      0.000124
      3.66114      5.82450      6.00136        -0.000103      0.000027     -0.000189
      3.67533      3.41041      3.73522         0.000076      0.000246      0.000057
      7.23662      7.43511      7.03664        -0.000032      0.000008      0.000057
      7.25691      2.53835      2.26329         0.000044      0.000032     -0.000000
      2.41784      7.13743      2.25645         0.000002      0.000030      0.000034
      2.38736      2.30365      7.18189        -0.000015      0.000014     -0.000040
      9.60605      0.33571      9.51998         0.000039     -0.000046     -0.000024
      9.64758      5.25803      4.77958        -0.000008     -0.000017      0.000020
      4.97915      9.48868      4.71315        -0.000013     -0.000022      0.000016
      4.64719      4.52151      0.04855         0.000119      0.000060     -0.000178
    total drift:                                0.016901      0.001960      0.014025

  FREE ENERGIE OF THE ION-ELECTRON SYSTEM (eV)
  free  energy   TOTEN  =      -272.41463277 eV

  energy  without entropy=     -272.41463277  energy(sigma->0) =     -272.41463277

 d Force = 0.2483084E-06[-0.591E-07, 0.556E-06]  d Energy = 0.1415866E-05-0.117E-05
 d Force =-0.2012118E-02[-0.201E-02,-0.201E-02]  d Ewald  =-0.2012118E-02 0.127E-10

 stress matrix after NEB project (eV)
      0.79063      0.68338      0.83700
      0.68338      0.97719     -0.27262
      0.83700     -0.27262     -1.75939
  FORCES: max atom, RMS     0.000559    0.000187
  FORCE total and by dimension    0.001349    0.000345
  Stress total and by dimension    2.675678    1.759395
 Conjugate gradient step on ions:
 trial-energy change:   -0.000001  1 .order   -0.000000   -0.000001    0.000000
  (g-gl).g = 0.584E-06      g.g   = 0.328E-06  gl.gl    = 0.741E-06
 g(Force)  = 0.328E-06   g(Stress)= 0.000E+00 ortho     =-0.640E-07
 gamma     =   0.78821
 trial     =   2.00086
 opt step  =   1.80857  (harmonic =   1.80857) maximal distance =0.00008742
 next E    =  -272.414632   (d E  =  -0.00000)

 reached required accuracy - stopping structural energy minimisation