 vasp.6.4.1 05Apr23 (build Jun 07 2023 15:38:11) complex

 executed on             LinuxIFC date 2023.10.01  03:44:50

 INCAR:
   GGA = PE
   PREC = Accu
   EDIFF = 1.e-5
   EDIFFG = -1.e-2
   ENCUT = 520.
   NELM = 100
   NELMDL = -10
   LASPH = .TRUE.
   LREAL = Auto
   LMAXMIX = 4
   ISPIN = 2
   LDIAG = .TRUE.
   LPLANE = .TRUE.
   IVDW = 12
   SIGMA = 0.03
   ISMEAR = 0
   NSW = 1000    number of steps for IOM
   IBRION = 1    ionic relax: 0-MD 1-quasi-New 2-CG
   ISIF = 2    ionic relaxation + stress tensor calcn.
   LCHARG = .FALSE.
   LWAVE = .FALSE.
   ALGO = V
   KPAR = 1
   NPAR = 4

 POTCAR:    PAW_PBE Li_sv_GW 25Mar2010
 POTCAR:    PAW_PBE P_GW 19Mar2012
 POTCAR:    PAW_PBE S_GW 19Mar2012
 POTCAR:    PAW_PBE Cl_GW 19Mar2012
|           W    W    AA    RRRRR   N    N  II  N    N   GGGG   !!!           |
|           W    W   A  A   R    R  NN   N  II  NN   N  G    G  !!!           |
|           W    W  A    A  R    R  N N  N  II  N N  N  G       !!!           |
|           W WW W  AAAAAA  RRRRR   N  N N  II  N  N N  G  GGG   !            |
|           WW  WW  A    A  R   R   N   NN  II  N   NN  G    G                |
|           W    W  A    A  R    R  N    N  II  N    N   GGGG   !!!           |
|     You use a magnetic or noncollinear calculation, but did not specify     |
|     the initial magnetic moment with the MAGMOM tag. Note that a            |
|     default of 1 will be used for all atoms. This ferromagnetic setup       |
|     may break the symmetry of the crystal, in particular it may rule        |
|     out finding an antiferromagnetic solution. Thence, we recommend         |
|     setting the initial magnetic moment manually or verifying carefully     |
|     that this magnetic setup is desired.                                    |

   TITEL  = PAW_PBE Li_sv_GW 25Mar2010
   POMASS =    7.010; ZVAL   =    3.000    mass and valenz
   ENMAX  =  433.699; ENMIN  =  325.274 eV

   TITEL  = PAW_PBE P_GW 19Mar2012
   POMASS =   30.974; ZVAL   =    5.000    mass and valenz
   ENMAX  =  255.040; ENMIN  =  191.280 eV

[...]

   TITEL  = PAW_PBE Cl_GW 19Mar2012
   POMASS =   35.453; ZVAL   =    7.000    mass and valenz
   ENMAX  =  262.472; ENMIN  =  196.854 eV

 Optimization of the real space projectors (new method)

 maximal supplied QI-value         = 25.13
 optimisation between [QCUT,QGAM] = [ 11.56, 23.12] = [ 37.43,149.72] Ry
 Optimized for a Real-space Cutoff    1.28 Angstroem

   l    n(q)    QCUT    max X(q) W(low)/X(q) W(high)/X(q)  e(spline)
   0      9    11.561    87.733    0.11E-03    0.32E-04    0.56E-06
   0      9    11.561    82.800    0.11E-03    0.35E-04    0.56E-06
   0      9    11.561     2.509    0.22E-03    0.42E-04    0.79E-06
   1      8    11.561    12.580    0.94E-04    0.26E-03    0.21E-06
   1      8    11.561     1.319    0.33E-04    0.15E-03    0.19E-06
   2      8    11.561     1.993    0.36E-04    0.89E-04    0.26E-06
 Optimization of the real space projectors (new method)

[...]

   l    n(q)    QCUT    max X(q) W(low)/X(q) W(high)/X(q)  e(spline)
   0     10    11.508     7.541    0.34E-04    0.13E-04    0.69E-07
   0     10    11.508     1.809    0.49E-04    0.27E-04    0.14E-06
   1     10    11.508     4.107    0.27E-05    0.41E-05    0.14E-06
   1     10    11.508     2.196    0.26E-05    0.25E-05    0.22E-06
   2      9    11.508     4.265    0.18E-03    0.11E-03    0.81E-06
   2      9    11.508     1.925    0.97E-04    0.76E-04    0.47E-06
 Optimization of the real space projectors (new method)

 maximal supplied QI-value         = 19.84
 optimisation between [QCUT,QGAM] = [ 11.51, 23.22] = [ 37.09,150.92] Ry
 Optimized for a Real-space Cutoff    1.21 Angstroem

   l    n(q)    QCUT    max X(q) W(low)/X(q) W(high)/X(q)  e(spline)
   0      8    11.508     6.761    0.57E-04    0.57E-04    0.35E-07
   0      8    11.508     1.642    0.14E-03    0.14E-03    0.91E-07
   1      8    11.508     3.519    0.20E-04    0.72E-04    0.47E-07
   1      8    11.508     2.150    0.27E-04    0.11E-03    0.89E-07
   2      7    11.508     2.976    0.19E-03    0.33E-03    0.16E-06
   2      7    11.508     1.494    0.14E-03    0.29E-03    0.14E-06
  PAW_PBE Li_sv_GW 25Mar2010            :
  PAW_PBE P_GW 19Mar2012                :
  PAW_PBE S_GW 19Mar2012                :
  PAW_PBE Cl_GW 19Mar2012               :

 POSCAR: Li24 P4 S20 Cl4
  positions in direct lattice
 exchange correlation table for  LEXCH =        8
   RHO(1)=    0.500       N(1)  =     2000
   RHO(2)=  100.500       N(2)  =     4000

 VTST: version 4.1, (05/19/21)

 CHAIN: initializing optimizer

 OPT: Using VASP QUASI-newton optimizer
 CHAIN: Read ICHAIN            0

 POSCAR: Li24 P4 S20 Cl4
  positions in direct lattice

 ion  position               nearest neighbor table
   1  0.977  0.250  0.250-
   2  0.977  0.750  0.750-
   3  0.023  0.250  0.750-
   4  0.023  0.750  0.250-
   5  0.250  0.250  0.977-
   6  0.250  0.750  0.023-
   7  0.750  0.250  0.023-
   8  0.750  0.750  0.977-
   9  0.250  0.977  0.250-
  10  0.250  0.023  0.750-
  11  0.750  0.977  0.750-
  12  0.750  0.022  0.250-
  13  0.250  0.750  0.477-
  14  0.250  0.250  0.523-
  15  0.750  0.750  0.523-
  16  0.750  0.250  0.477-
  17  0.250  0.477  0.750-
  18  0.250  0.523  0.250-
  19  0.750  0.477  0.250-
  20  0.750  0.523  0.750-
  21  0.477  0.250  0.750-
  22  0.477  0.750  0.250-
  23  0.523  0.250  0.250-
  24  0.523  0.750  0.750-
  25  0.500  0.500  0.500-  42 2.05  44 2.05  41 2.05  43 2.05
  26  0.500  0.000  1.000-  40 2.05  38 2.05  39 2.05  37 2.05
  27  0.000  0.500  0.000-  36 2.05  34 2.05  33 2.05  35 2.05
  28  1.000  1.000  0.500-  29 2.05  31 2.05  30 2.05  32 2.05
  29  0.118  0.882  0.618-  28 2.05
  30  0.118  0.118  0.382-  28 2.05
  31  0.882  0.882  0.382-  28 2.05
  32  0.882  0.118  0.618-  28 2.05
  33  0.882  0.618  0.118-  27 2.05
  34  0.882  0.382  0.882-  27 2.05
  35  0.118  0.618  0.882-  27 2.05
  36  0.118  0.382  0.118-  27 2.05
  37  0.618  0.118  0.882-  26 2.05
  38  0.618  0.882  0.118-  26 2.05
  39  0.382  0.118  0.118-  26 2.05
  40  0.382  0.882  0.882-  26 2.05
  41  0.618  0.618  0.382-  25 2.05
  42  0.618  0.382  0.618-  25 2.05
  43  0.382  0.618  0.618-  25 2.05
  44  0.382  0.382  0.382-  25 2.05
  45  0.750  0.750  0.750-
  46  0.750  0.249  0.250-
  47  0.250  0.750  0.250-
  48  0.250  0.250  0.750-
  49  1.000  1.000  1.000-
  50  0.000  0.500  0.500-
  51  0.500  1.000  0.500-
  52  0.500  0.500  0.000-

  LATTYP: Found a simple cubic cell.
 ALAT       =    10.0303535718

  Lattice vectors:

 A1 = (  10.0303535718,   0.0000000000,   0.0000000000)
 A2 = (   0.0000000000,  10.0303535718,   0.0000000000)
 A3 = (   0.0000000000,   0.0000000000,  10.0303535718)

Analysis of symmetry for initial positions (statically):
 Subroutine PRICEL returns:
 Original cell was already a primitive cell.

 Routine SETGRP: Setting up the symmetry group for a
 simple cubic supercell.

 Subroutine GETGRP returns: Found  2 space group operations
 (whereof  1 operations were pure point group operations)
 out of a pool of 48 trial point group operations.

The static configuration has the point symmetry C_1 .
 The point group associated with its full space group is C_1h.

Analysis of symmetry for dynamics (positions and initial velocities):
 Subroutine PRICEL returns:
 Original cell was already a primitive cell.

[...]

The dynamic configuration has the point symmetry C_1 .
 The point group associated with its full space group is C_1h.

Analysis of structural, dynamic, and magnetic symmetry:
 Subroutine PRICEL returns:
 Original cell was already a primitive cell.

 Routine SETGRP: Setting up the symmetry group for a
 simple cubic supercell.

 Subroutine GETGRP returns: Found  2 space group operations
 (whereof  1 operations were pure point group operations)
 out of a pool of 48 trial point group operations.

The overall configuration has the point symmetry C_1 .
 The point group associated with its full space group is C_1h.

 Subroutine INISYM returns: Found  2 space group operations
 (whereof  1 operations are pure point group operations),
 and found     1 'primitive' translations

                                     Primitive cell

  volume of cell :    1009.1337

  direct lattice vectors                    reciprocal lattice vectors
    10.030353572  0.000000000  0.000000000     0.099697383  0.000000000  0.000000000
     0.000000000 10.030353572  0.000000000     0.000000000  0.099697383  0.000000000
     0.000000000  0.000000000 10.030353572     0.000000000  0.000000000  0.099697383

  length of vectors
    10.030353572 10.030353572 10.030353572     0.099697383  0.099697383  0.099697383

  position of ions in fractional coordinates (direct lattice)
     0.976733307  0.249947864  0.249933233
     0.976641272  0.750017415  0.750114991
     0.023284899  0.250028497  0.750051179
     0.023367221  0.750021706  0.249959397
     0.249898720  0.249925041  0.976703015
     0.250021041  0.750066645  0.023317363
     0.750117341  0.249950884  0.023322196
     0.750080612  0.750023157  0.976676880
     0.250031362  0.977103537  0.250015660
     0.249839273  0.022561077  0.749839273
     0.750015660  0.977103537  0.750031362
     0.749940943  0.022458184  0.249940943
     0.250114991  0.750017415  0.476641272
     0.250051179  0.250028497  0.523284899
     0.749959397  0.750021706  0.523367221
     0.749933233  0.249947864  0.476733307
     0.250014775  0.476581724  0.750014775
     0.250031383  0.523160844  0.250001866
     0.750017678  0.476513674  0.250017678
     0.750001866  0.523160844  0.750031383
     0.476703015  0.249925041  0.749898720
     0.476676880  0.750023157  0.250080612
     0.523322196  0.249950884  0.250117341
     0.523317363  0.750066645  0.750021041
     0.500033347  0.500239782  0.500025312
     0.499945976  0.000033298  0.999945976
     0.000025312  0.500239782  0.000033347
     0.999954051  0.999935535  0.499954051
     0.117825247  0.881654456  0.617825247
     0.118009617  0.118251876  0.381998593
     0.882031361  0.881723284  0.382031361
     0.881998593  0.118251876  0.618009617
     0.881893813  0.618289462  0.118155656
     0.882039532  0.382098772  0.882059655
     0.118140122  0.618311637  0.881912116
     0.117991250  0.382083407  0.117982266
     0.618028929  0.118328376  0.881991221
     0.617816268  0.881732748  0.117816268
     0.381991221  0.118328376  0.118028929
     0.381996256  0.881901571  0.881996256
     0.618155656  0.618289462  0.381893813
     0.617982266  0.382083407  0.617991250
     0.381912116  0.618311637  0.618140122
     0.382059655  0.382098772  0.382039532
     0.749983689  0.750132656  0.750021288
     0.750024871  0.249472837  0.250024871
     0.250021288  0.750132656  0.249983689
     0.249992518  0.249555921  0.749992518
     0.999993309  0.999891636  0.999999924
     0.000022731  0.500036966  0.500022731
     0.499999924  0.999891636  0.499993309
     0.500015477  0.500092336  0.000015477

  ion indices of the primitive-cell ions
   primitive index   ion index
                 1           1
                 2           2
                 3           3
                 4           4
                 5           5
[...]
     13     -43.3089      1.00000
     14     -43.3086      1.00000
     15     -43.3082      1.00000
     16     -43.3080      1.00000
     17     -43.3080      1.00000
     18     -43.3079      1.00000
     19     -43.3078      1.00000
     20     -43.3077      1.00000
     21     -43.3071      1.00000
     22     -43.3070      1.00000
     23     -43.3062      1.00000
     24     -43.3059      1.00000
     25     -14.1296      1.00000
     26     -14.1149      1.00000
     27     -14.1147      1.00000
     28     -14.1146      1.00000
     29     -11.2733      1.00000
     30     -11.2729      1.00000
     31     -11.2717      1.00000
     32     -11.2106      1.00000
     33     -11.1461      1.00000
     34     -11.1456      1.00000
     35     -11.1448      1.00000
     36     -11.1214      1.00000
     37     -11.1205      1.00000
     38     -11.1203      1.00000
     39     -11.1198      1.00000
     40     -11.1183      1.00000
     41     -11.0897      1.00000
     42     -11.0842      1.00000
     43     -11.0830      1.00000
     44     -11.0824      1.00000
     45      -9.6626      1.00000
     46      -9.6624      1.00000
     47      -9.6621      1.00000
     48      -9.6588      1.00000
     49      -7.1216      1.00000
     50      -6.8325      1.00000
     51      -6.8321      1.00000
     52      -6.8321      1.00000
     53      -4.1760      1.00000
     54      -4.1759      1.00000
     55      -4.1747      1.00000
     56      -3.8945      1.00000
     57      -3.7340      1.00000
     58      -3.7340      1.00000
     59      -3.6340      1.00000
     60      -3.6340      1.00000
[...]
    162       8.2250      0.00000
    163       8.3007      0.00000
    164       8.3497      0.00000
    165       8.3645      0.00000
    166       8.4279      0.00000
    167       8.5310      0.00000
    168       8.5626      0.00000
    169       8.6237      0.00000
    170       8.6786      0.00000
    171       8.8294      0.00000
    172       8.8607      0.00000
    173       8.9748      0.00000
    174       9.1545      0.00000
    175       9.5496      0.00000
    176       9.5423      0.00000

[...]

 soft charge-density along one line, spin component           2
         0         1         2         3         4         5         6         7         8         9
 total charge-density along one line

------------------------ aborting loop because EDIFF is reached ----------------------------------------

         DFTD3 V3.0 Rev 1
 Edisp (eV)  -12.06989

 E6    (eV) :    -7.4326
 E8    (eV) :    -4.6373
 % E8        : 38.42

  FORCE on cell =-STRESS in cart. coord.  units (eV):
  Direction    XX          YY          ZZ          XY          YZ          ZX
  Alpha Z   269.00052   269.00052   269.00052
  Ewald   -2756.73277 -2758.00794 -2756.73277    -0.06837    -0.06837     1.17190
  Hartree   845.48636   844.75475   845.48636    -0.03770    -0.03770     0.67619
  E(xc)    -946.79193  -946.79156  -946.79193     0.00004     0.00004    -0.00053
  Local   -1763.75963 -1761.60607 -1763.75963     0.10834     0.10834    -1.90447
  n-local  1480.95329  1480.86336  1480.95325     0.28724    -0.29432     0.05992
  augment  -356.04785  -356.01983  -356.04785     0.00072     0.00073    -0.01145
  Kinetic  3240.13896  3239.83031  3240.13898     0.51354    -0.52585     0.09932
  Fock        0.00000     0.00000     0.00000     0.00000     0.00000     0.00000
  vdW       -12.82308   -12.82339   -12.82308     0.00003     0.00003    -0.00034
  Total      -0.57614    -0.79985    -0.57614    -0.00663    -0.00663     0.09055
  in kB      -0.91472    -1.26991    -0.91472    -0.01052    -0.01052     0.14377

 VOLUME and BASIS-vectors are now :
  energy-cutoff  :      520.00
  volume of cell :     1009.13
      direct lattice vectors                 reciprocal lattice vectors
    10.030353572  0.000000000  0.000000000     0.099697383  0.000000000  0.000000000
     0.000000000 10.030353572  0.000000000     0.000000000  0.099697383  0.000000000
     0.000000000  0.000000000 10.030353572     0.000000000  0.000000000  0.099697383

  length of vectors
    10.030353572 10.030353572 10.030353572     0.099697383  0.099697383  0.099697383

 FORCES acting on ions
    electron-ion (+dipol)            ewald-force                    non-local-force                 convergence-correction
   -.688E+01 -.694E-01 0.696E-01   0.617E+01 0.642E-01 -.632E-01   0.699E+00 0.433E-02 -.559E-02   -.103E-02 -.398E-03 0.142E-03
   -.686E+01 0.133E-01 -.279E-01   0.616E+01 -.141E-01 0.237E-01   0.696E+00 -.182E-03 0.499E-02   -.145E-03 0.437E-04 -.275E-03
   0.689E+01 -.636E-01 -.431E-01   -.619E+01 0.595E-01 0.384E-01   -.700E+00 0.335E-02 0.377E-02   0.138E-02 -.505E-03 0.219E-03
   0.685E+01 0.248E-01 0.120E-01   -.615E+01 -.254E-01 -.101E-01   -.695E+00 -.621E-03 -.270E-02   0.299E-03 0.940E-04 0.182E-03
   0.782E-01 -.555E-01 -.687E+01   -.713E-01 0.518E-01 0.616E+01   -.645E-02 0.270E-02 0.698E+00   0.427E-03 -.353E-03 -.106E-02
   0.201E-02 0.386E-01 0.686E+01   -.901E-03 -.388E-01 -.616E+01   -.176E-02 -.136E-02 -.695E+00   0.421E-04 0.404E-03 0.857E-04
   -.636E-01 -.601E-01 0.688E+01   0.572E-01 0.557E-01 -.617E+01   0.591E-02 0.346E-02 -.699E+00   -.259E-03 -.344E-03 0.125E-02
   -.275E-01 0.183E-01 -.687E+01   0.228E-01 -.189E-01 0.617E+01   0.539E-02 -.517E-03 0.697E+00   -.464E-04 0.160E-03 -.391E-03
   -.656E-02 -.685E+01 -.602E-03   0.599E-02 0.615E+01 0.646E-03   0.632E-03 0.692E+00 0.106E-03   -.140E-03 -.103E-02 -.565E-04
   -.606E-02 0.666E+01 -.605E-02   0.802E-02 -.597E+01 0.802E-02   -.241E-02 -.691E+00 -.241E-02   -.780E-04 -.459E-02 -.780E-04
   -.599E-03 -.685E+01 -.656E-02   0.646E-03 0.615E+01 0.599E-02   0.106E-03 0.692E+00 0.632E-03   -.565E-04 -.103E-02 -.140E-03
   0.460E-02 0.666E+01 0.460E-02   -.293E-02 -.597E+01 -.293E-02   -.166E-02 -.692E+00 -.166E-02   0.614E-04 -.459E-02 0.614E-04
   -.279E-01 0.133E-01 -.686E+01   0.237E-01 -.141E-01 0.616E+01   0.499E-02 -.182E-03 0.696E+00   -.275E-03 0.437E-04 -.145E-03
   -.431E-01 -.636E-01 0.689E+01   0.384E-01 0.595E-01 -.619E+01   0.377E-02 0.335E-02 -.700E+00   0.219E-03 -.505E-03 0.138E-02
   0.120E-01 0.248E-01 0.685E+01   -.101E-01 -.254E-01 -.615E+01   -.270E-02 -.621E-03 -.695E+00   0.182E-03 0.940E-04 0.299E-03
   0.696E-01 -.694E-01 -.688E+01   -.632E-01 0.642E-01 0.617E+01   -.559E-02 0.433E-02 0.699E+00   0.142E-03 -.398E-03 -.103E-02
   -.960E-02 -.675E+01 -.960E-02   0.924E-02 0.606E+01 0.924E-02   0.320E-03 0.688E+00 0.320E-03   0.651E-04 0.212E-03 0.651E-04
   -.601E-03 0.687E+01 0.410E-02   0.846E-03 -.618E+01 -.458E-02   0.440E-04 -.689E+00 0.786E-03   -.133E-03 -.987E-03 0.492E-04
   0.275E-02 -.674E+01 0.275E-02   -.277E-02 0.605E+01 -.277E-02   -.348E-04 0.687E+00 -.348E-04   0.670E-04 0.184E-03 0.670E-04
   0.409E-02 0.687E+01 -.598E-03   -.458E-02 -.618E+01 0.846E-03   0.786E-03 -.689E+00 0.440E-04   0.492E-04 -.987E-03 -.133E-03
   -.687E+01 -.555E-01 0.782E-01   0.616E+01 0.518E-01 -.713E-01   0.698E+00 0.270E-02 -.645E-02   -.106E-02 -.353E-03 0.427E-03
   -.687E+01 0.183E-01 -.275E-01   0.617E+01 -.189E-01 0.228E-01   0.697E+00 -.517E-03 0.539E-02   -.391E-03 0.160E-03 -.464E-04
   0.688E+01 -.601E-01 -.636E-01   -.617E+01 0.557E-01 0.572E-01   -.699E+00 0.346E-02 0.591E-02   0.125E-02 -.344E-03 -.259E-03
   0.686E+01 0.386E-01 0.201E-02   -.616E+01 -.388E-01 -.901E-03   -.695E+00 -.136E-02 -.176E-02   0.857E-04 0.404E-03 0.421E-04
   -.512E-03 -.235E-01 -.666E-02   0.191E-02 0.149E-01 0.731E-02   -.146E-02 0.444E-03 -.923E-03   -.312E-03 0.254E-02 -.117E-03
   0.127E-01 -.216E+00 0.127E-01   -.134E-01 0.205E+00 -.134E-01   0.127E-02 0.982E-02 0.127E-02   0.225E-03 0.159E-02 0.225E-03
   -.666E-02 -.235E-01 -.512E-03   0.731E-02 0.149E-01 0.191E-02   -.923E-03 0.444E-03 -.146E-02   -.117E-03 0.254E-02 -.312E-03
   0.237E-01 -.218E+00 0.237E-01   -.231E-01 0.206E+00 -.231E-01   0.842E-04 0.126E-01 0.842E-04   0.770E-04 0.154E-02 0.770E-04
   -.451E+02 0.452E+02 -.451E+02   0.484E+02 -.485E+02 0.484E+02   -.328E+01 0.332E+01 -.328E+01   0.308E-02 -.498E-02 0.308E-02
   -.452E+02 -.453E+02 0.451E+02   0.485E+02 0.486E+02 -.484E+02   -.330E+01 -.331E+01 0.329E+01   -.510E-02 -.216E-02 0.474E-02
   0.451E+02 0.451E+02 0.451E+02   -.484E+02 -.484E+02 -.484E+02   0.328E+01 0.332E+01 0.328E+01   -.306E-02 -.484E-02 -.306E-02
   0.451E+02 -.453E+02 -.452E+02   -.484E+02 0.486E+02 0.485E+02   0.329E+01 -.331E+01 -.330E+01   0.474E-02 -.216E-02 -.510E-02
   0.452E+02 -.449E+02 -.452E+02   -.485E+02 0.482E+02 0.485E+02   0.330E+01 -.330E+01 -.330E+01   0.231E-02 0.381E-02 -.204E-02
   0.452E+02 0.453E+02 0.452E+02   -.485E+02 -.486E+02 -.485E+02   0.329E+01 0.329E+01 0.329E+01   -.546E-03 0.150E-02 -.444E-03
   -.452E+02 -.449E+02 0.452E+02   0.485E+02 0.482E+02 -.485E+02   -.330E+01 -.330E+01 0.330E+01   -.205E-02 0.386E-02 0.207E-02
   -.452E+02 0.453E+02 -.452E+02   0.485E+02 -.486E+02 0.485E+02   -.329E+01 0.329E+01 -.329E+01   0.142E-02 0.494E-03 0.119E-02
   -.452E+02 -.453E+02 0.451E+02   0.485E+02 0.486E+02 -.484E+02   -.330E+01 -.331E+01 0.329E+01   -.503E-02 -.164E-02 0.466E-02
   -.451E+02 0.452E+02 -.451E+02   0.484E+02 -.485E+02 0.484E+02   -.328E+01 0.332E+01 -.328E+01   0.234E-02 -.381E-02 0.234E-02
   0.451E+02 -.453E+02 -.452E+02   -.484E+02 0.486E+02 0.485E+02   0.329E+01 -.331E+01 -.330E+01   0.466E-02 -.164E-02 -.503E-02
   0.451E+02 0.451E+02 0.451E+02   -.484E+02 -.484E+02 -.484E+02   0.329E+01 0.331E+01 0.329E+01   -.371E-02 -.459E-02 -.371E-02
   -.452E+02 -.449E+02 0.452E+02   0.485E+02 0.482E+02 -.485E+02   -.330E+01 -.330E+01 0.330E+01   -.204E-02 0.381E-02 0.231E-02
   -.452E+02 0.453E+02 -.452E+02   0.485E+02 -.486E+02 0.485E+02   -.329E+01 0.329E+01 -.329E+01   0.119E-02 0.494E-03 0.142E-02
   0.452E+02 -.449E+02 -.452E+02   -.485E+02 0.482E+02 0.485E+02   0.330E+01 -.330E+01 -.330E+01   0.207E-02 0.386E-02 -.205E-02
   0.452E+02 0.453E+02 0.452E+02   -.485E+02 -.486E+02 -.485E+02   0.329E+01 0.329E+01 0.329E+01   -.444E-03 0.150E-02 -.546E-03
   0.222E-01 0.234E-02 0.137E-01   -.233E-01 0.223E-02 -.142E-01   0.104E-02 -.409E-02 0.651E-03   0.720E-04 -.111E-02 -.182E-03
   -.413E-02 0.200E-01 -.413E-02   0.483E-02 -.331E-01 0.483E-02   -.922E-03 0.234E-01 -.922E-03   0.736E-04 -.485E-02 0.736E-04
   0.137E-01 0.234E-02 0.222E-01   -.142E-01 0.223E-02 -.233E-01   0.651E-03 -.409E-02 0.104E-02   -.182E-03 -.111E-02 0.720E-04
   -.194E-01 0.742E-02 -.194E-01   0.203E-01 -.184E-01 0.203E-01   -.134E-02 0.208E-01 -.134E-02   0.348E-03 -.474E-02 0.348E-03
   -.114E-01 -.240E+00 -.263E-02   0.126E-01 0.242E+00 0.362E-02   -.186E-02 0.625E-03 -.114E-02   0.659E-03 -.285E-02 0.223E-03
   0.145E-01 0.171E+00 0.145E-01   -.149E-01 -.170E+00 -.149E-01   0.673E-03 -.524E-02 0.673E-03   -.173E-03 0.341E-02 -.173E-03
   -.263E-02 -.240E+00 -.114E-01   0.362E-02 0.242E+00 0.126E-01   -.114E-02 0.625E-03 -.186E-02   0.223E-03 -.285E-02 0.659E-03
   0.646E-02 0.228E+00 0.646E-02   -.611E-02 -.231E+00 -.611E-02   -.109E-03 0.834E-03 -.109E-03   -.192E-03 0.163E-02 -.192E-03
   0.314E-02 -.103E+00 0.315E-02   -.659E-13 0.246E-13 -.391E-13   -.944E-04 0.517E-01 -.944E-04   0.117E-02 -.254E-01 0.117E-02

 POSITION                                       TOTAL-FORCE (eV/Angst)
      9.79715      2.50713      2.50681         0.000174      0.000149      0.000820
      9.79628      7.52308      7.52381         0.000162      0.000537      0.000514
      0.23334      2.50795      7.52330        -0.000234      0.000180     -0.000858
      0.23413      7.52310      2.50728        -0.000164      0.000415     -0.000677
      2.50642      2.50690      9.79685         0.000766      0.000191      0.000230
      2.50790      7.52350      0.23366        -0.000698      0.000285     -0.000105
      7.52404      2.50714      0.23372        -0.000823      0.000218     -0.000372
      7.52346      7.52311      9.79664         0.000494      0.000471      0.000157
      2.50792      9.80019      2.50774        -0.000162      0.006573      0.000012
      2.50605      0.22738      7.52122        -0.000592     -0.004943     -0.000592
      7.52292      9.80019      7.52310         0.000012      0.006573     -0.000162
      7.52216      0.22643      2.50699        -0.000006     -0.006046     -0.000006
      2.50863      7.52308      4.78111         0.000514      0.000537      0.000162
      2.50812      2.50795      5.24852        -0.000858      0.000180     -0.000234
      7.52246      7.52310      5.24931        -0.000677      0.000415     -0.000164
      7.52199      2.50713      4.78198         0.000820      0.000149      0.000174
      2.50774      4.78040      7.52292        -0.000053      0.002240     -0.000053
      2.50791      5.24796      2.50757         0.000072     -0.000455      0.000277
      7.52294      4.77973      2.50776        -0.000068      0.002279     -0.000068
      7.52275      5.24796      7.52309         0.000277     -0.000455      0.000072
      4.78168      2.50690      7.52160         0.000230      0.000191      0.000766
      4.78147      7.52311      2.50828         0.000157      0.000471      0.000494
      5.24890      2.50714      2.50886        -0.000372      0.000218     -0.000823
      5.24883      7.52350      7.52308        -0.000105      0.000285     -0.000698
      5.01542      5.01732      5.01536        -0.000457     -0.004113     -0.000464
      5.01476      0.00082     10.02993         0.000728      0.001800      0.000728
      0.00018      5.01732      0.00025        -0.000464     -0.004113     -0.000457
     10.02997     10.03034      5.01479         0.000657      0.002981      0.000657
      1.18217      8.84370      6.19735         0.003916      0.002418      0.003916
      1.18354      1.18532      3.83172         0.000064     -0.003266     -0.000050
      8.84693      8.84449      3.83175        -0.002629      0.003034     -0.002629
      8.84689      1.18532      6.19871        -0.000050     -0.003266      0.000064
      8.84605      6.20077      1.18480         0.001006     -0.004000     -0.001231
      8.84691      3.83251      8.84710        -0.002646     -0.001352     -0.002759
      1.18463      6.20099      8.84624        -0.001306     -0.003977      0.001013
      1.18375      3.83236      1.18367         0.002601     -0.001464      0.002685
      6.19885      1.18605      8.84685        -0.000337     -0.003602      0.000179
      6.19724      8.84443      1.18207         0.003740      0.001983      0.003740
      3.83167      1.18605      1.18367         0.000179     -0.003602     -0.000337
      3.83135      8.84612      8.84653        -0.002860      0.001633     -0.002860
      6.19997      6.20077      3.83087        -0.001231     -0.004000      0.001006
      6.19885      3.83236      6.19893         0.002685     -0.001464      0.002601
      3.83106      6.20099      6.19980         0.001013     -0.003977     -0.001306
      3.83192      3.83251      3.83173        -0.002759     -0.001352     -0.002646
      7.52261      7.52401      7.52298        -0.000047      0.000867     -0.000108
      7.52300      2.50300      2.50783        -0.000215      0.006840     -0.000215
      2.50780      7.52401      2.50743        -0.000108      0.000867     -0.000047
      2.50750      2.50378      7.52268        -0.000194      0.006391     -0.000194
     10.03025     10.02927     10.03032        -0.000072      0.001150      0.000006
      0.00024      5.01546      5.01542        -0.000052      0.000933     -0.000052
      5.01514     10.02927      5.01507         0.000006      0.001150     -0.000072
      5.01533      5.01616      0.00015        -0.000034      0.000844     -0.000034
    total drift:                                0.004218     -0.076203      0.004218

  FREE ENERGIE OF THE ION-ELECTRON SYSTEM (eV)
  free  energy   TOTEN  =      -268.23400365 eV

  energy  without entropy=     -268.23400365  energy(sigma->0) =     -268.23400365

 d Force = 0.5164179E-04[ 0.232E-05, 0.101E-03]  d Energy = 0.6962633E-04-0.180E-04
 d Force =-0.2587517E-02[-0.275E-02,-0.243E-02]  d Ewald  =-0.2587538E-02 0.214E-07

 stress matrix after NEB project (eV)
     -0.57614     -0.00663      0.09055
     -0.00663     -0.79985     -0.00663
      0.09055     -0.00663     -0.57614
  FORCES: max atom, RMS     0.006847    0.003423
  FORCE total and by dimension    0.024686    0.006840
  Stress total and by dimension    1.149005    0.799853
 Quasi-Newton relaxation of ions (Broydens 2nd method)
  g(Force)  = 0.294E-04   g(Stress)= 0.000E+00

 retain information from N=  2 steps
 eigenvalues of (default step * inverse Hessian matrix)
  average eigenvalue of G=   0.4183
 eigenvalue spectrum of G is  0.4183  0.4183

 reached required accuracy - stopping structural energy minimisation