 vasp.6.4.1 05Apr23 (build Jun 07 2023 15:38:11) complex

 executed on             LinuxIFC date 2023.10.01  03:28:00

 INCAR:
   GGA = PE
   PREC = Accu
   EDIFF = 1.e-5
   EDIFFG = -1.e-2
   ENCUT = 520.
   NELM = 100
   NELMDL = -10
   LASPH = .TRUE.
   LREAL = Auto
   LMAXMIX = 4
   ISPIN = 2
   LDIAG = .TRUE.
   LPLANE = .TRUE.
   IVDW = 12
   SIGMA = 0.03
   ISMEAR = 0
   NSW = 1000    number of steps for IOM
   IBRION = 1    ionic relax: 0-MD 1-quasi-New 2-CG
   ISIF = 2    ionic relaxation + stress tensor calcn.
   LCHARG = .FALSE.
   LWAVE = .FALSE.
   ALGO = V
   KPAR = 1
   NPAR = 4

 POTCAR:    PAW_PBE Li_sv_GW 25Mar2010
 POTCAR:    PAW_PBE P_GW 19Mar2012
 POTCAR:    PAW_PBE S_GW 19Mar2012
 POTCAR:    PAW_PBE Cl_GW 19Mar2012
|           W    W    AA    RRRRR   N    N  II  N    N   GGGG   !!!           |
|           W    W   A  A   R    R  NN   N  II  NN   N  G    G  !!!           |
|           W    W  A    A  R    R  N N  N  II  N N  N  G       !!!           |
|           W WW W  AAAAAA  RRRRR   N  N N  II  N  N N  G  GGG   !            |
|           WW  WW  A    A  R   R   N   NN  II  N   NN  G    G                |
|           W    W  A    A  R    R  N    N  II  N    N   GGGG   !!!           |
|     You use a magnetic or noncollinear calculation, but did not specify     |
|     the initial magnetic moment with the MAGMOM tag. Note that a            |
|     default of 1 will be used for all atoms. This ferromagnetic setup       |
|     may break the symmetry of the crystal, in particular it may rule        |
|     out finding an antiferromagnetic solution. Thence, we recommend         |
|     setting the initial magnetic moment manually or verifying carefully     |
|     that this magnetic setup is desired.                                    |

   TITEL  = PAW_PBE Li_sv_GW 25Mar2010
   POMASS =    7.010; ZVAL   =    3.000    mass and valenz
   ENMAX  =  433.699; ENMIN  =  325.274 eV

   TITEL  = PAW_PBE P_GW 19Mar2012
   POMASS =   30.974; ZVAL   =    5.000    mass and valenz
   ENMAX  =  255.040; ENMIN  =  191.280 eV

[...]

   TITEL  = PAW_PBE Cl_GW 19Mar2012
   POMASS =   35.453; ZVAL   =    7.000    mass and valenz
   ENMAX  =  262.472; ENMIN  =  196.854 eV

 Optimization of the real space projectors (new method)

 maximal supplied QI-value         = 25.13
 optimisation between [QCUT,QGAM] = [ 11.56, 23.12] = [ 37.43,149.72] Ry
 Optimized for a Real-space Cutoff    1.28 Angstroem

   l    n(q)    QCUT    max X(q) W(low)/X(q) W(high)/X(q)  e(spline)
   0      9    11.561    87.733    0.11E-03    0.32E-04    0.56E-06
   0      9    11.561    82.800    0.11E-03    0.35E-04    0.56E-06
   0      9    11.561     2.509    0.22E-03    0.42E-04    0.79E-06
   1      8    11.561    12.580    0.94E-04    0.26E-03    0.21E-06
   1      8    11.561     1.319    0.33E-04    0.15E-03    0.19E-06
   2      8    11.561     1.993    0.36E-04    0.89E-04    0.26E-06
 Optimization of the real space projectors (new method)

[...]

   l    n(q)    QCUT    max X(q) W(low)/X(q) W(high)/X(q)  e(spline)
   0     10    11.508     7.541    0.34E-04    0.13E-04    0.69E-07
   0     10    11.508     1.809    0.49E-04    0.27E-04    0.14E-06
   1     10    11.508     4.107    0.27E-05    0.41E-05    0.14E-06
   1     10    11.508     2.196    0.26E-05    0.25E-05    0.22E-06
   2      9    11.508     4.265    0.18E-03    0.11E-03    0.81E-06
   2      9    11.508     1.925    0.97E-04    0.76E-04    0.47E-06
 Optimization of the real space projectors (new method)

 maximal supplied QI-value         = 19.84
 optimisation between [QCUT,QGAM] = [ 11.51, 23.22] = [ 37.09,150.92] Ry
 Optimized for a Real-space Cutoff    1.21 Angstroem

   l    n(q)    QCUT    max X(q) W(low)/X(q) W(high)/X(q)  e(spline)
   0      8    11.508     6.761    0.57E-04    0.57E-04    0.35E-07
   0      8    11.508     1.642    0.14E-03    0.14E-03    0.91E-07
   1      8    11.508     3.519    0.20E-04    0.72E-04    0.47E-07
   1      8    11.508     2.150    0.27E-04    0.11E-03    0.89E-07
   2      7    11.508     2.976    0.19E-03    0.33E-03    0.16E-06
   2      7    11.508     1.494    0.14E-03    0.29E-03    0.14E-06
  PAW_PBE Li_sv_GW 25Mar2010            :
  PAW_PBE P_GW 19Mar2012                :
  PAW_PBE S_GW 19Mar2012                :
  PAW_PBE Cl_GW 19Mar2012               :

 POSCAR: Li24 P4 S20 Cl4
  positions in direct lattice
 exchange correlation table for  LEXCH =        8
   RHO(1)=    0.500       N(1)  =     2000
   RHO(2)=  100.500       N(2)  =     4000

 VTST: version 4.1, (05/19/21)

 CHAIN: initializing optimizer

 OPT: Using VASP QUASI-newton optimizer
 CHAIN: Read ICHAIN            0

 POSCAR: Li24 P4 S20 Cl4
  positions in direct lattice

 ion  position               nearest neighbor table
   1  0.977  0.250  0.250-
   2  0.977  0.750  0.750-
   3  0.023  0.250  0.750-
   4  0.023  0.750  0.250-
   5  0.250  0.250  0.977-
   6  0.250  0.750  0.023-
   7  0.750  0.250  0.023-
   8  0.750  0.750  0.977-
   9  0.250  0.976  0.250-
  10  0.250  0.023  0.750-
  11  0.752  0.977  0.751-
  12  0.750  0.023  0.250-
  13  0.250  0.750  0.477-
  14  0.250  0.250  0.523-
  15  0.750  0.750  0.523-
  16  0.750  0.250  0.477-
  17  0.250  0.477  0.750-
  18  0.250  0.523  0.250-
  19  0.750  0.477  0.250-
  20  0.750  0.523  0.750-
  21  0.477  0.250  0.750-
  22  0.477  0.750  0.250-
  23  0.523  0.250  0.250-
  24  0.523  0.751  0.749-
  25  0.500  0.500  0.500-  43 2.05  44 2.05  42 2.05  41 2.05
  26  0.500  0.000  0.000-  39 2.05  40 2.05  37 2.05  38 2.05
  27  1.000  0.500  0.000-  33 2.05  34 2.05  36 2.05  35 2.05
  28  0.000  0.000  0.500-  32 2.05  31 2.05  30 2.05  29 2.05
  29  0.118  0.882  0.618-  28 2.05
  30  0.118  0.118  0.382-  28 2.05
  31  0.882  0.882  0.382-  28 2.05
  32  0.882  0.118  0.618-  28 2.05
  33  0.882  0.618  0.118-  27 2.05
  34  0.882  0.382  0.882-  27 2.05
  35  0.118  0.618  0.882-  27 2.05
  36  0.118  0.382  0.118-  27 2.05
  37  0.618  0.118  0.882-  26 2.05
  38  0.618  0.882  0.118-  26 2.05
  39  0.382  0.118  0.118-  26 2.05
  40  0.382  0.882  0.882-  26 2.05
  41  0.618  0.618  0.382-  25 2.05
  42  0.618  0.382  0.618-  25 2.05
  43  0.382  0.618  0.618-  25 2.05
  44  0.382  0.382  0.382-  25 2.05
  45  0.750  0.750  0.750-
  46  0.750  0.250  0.250-
  47  0.250  0.750  0.250-
  48  0.250  0.250  0.750-
  49  1.000  0.000  1.000-
  50  0.000  0.500  0.500-
  51  0.500  1.000  0.500-
  52  0.500  0.499  0.000-

  LATTYP: Found a simple cubic cell.
 ALAT       =    10.0233706847

  Lattice vectors:

 A1 = (  10.0233706847,   0.0000000000,   0.0000000000)
 A2 = (   0.0000000000,  10.0233706847,   0.0000000000)
 A3 = (   0.0000000000,   0.0000000000,  10.0233706847)

Analysis of symmetry for initial positions (statically):
 Subroutine PRICEL returns:
 Original cell was already a primitive cell.

 Routine SETGRP: Setting up the symmetry group for a
 simple cubic supercell.

 Subroutine GETGRP returns: Found  1 space group operations
 (whereof  1 operations were pure point group operations)
 out of a pool of 48 trial point group operations.

The static configuration has the point symmetry C_1 .

Analysis of symmetry for dynamics (positions and initial velocities):
 Subroutine PRICEL returns:
 Original cell was already a primitive cell.

[...]

The dynamic configuration has the point symmetry C_1 .

Analysis of structural, dynamic, and magnetic symmetry:
 Subroutine PRICEL returns:
 Original cell was already a primitive cell.

 Routine SETGRP: Setting up the symmetry group for a
 simple cubic supercell.

 Subroutine GETGRP returns: Found  1 space group operations
 (whereof  1 operations were pure point group operations)
 out of a pool of 48 trial point group operations.

The overall configuration has the point symmetry C_1 .

 Subroutine INISYM returns: Found  1 space group operations
 (whereof  1 operations are pure point group operations),
 and found     1 'primitive' translations

                                     Primitive cell

  volume of cell :    1007.0276

  direct lattice vectors                    reciprocal lattice vectors
    10.023370685  0.000000000  0.000000000     0.099766838  0.000000000  0.000000000
     0.000000000 10.023370685  0.000000000     0.000000000  0.099766838  0.000000000
     0.000000000  0.000000000 10.023370685     0.000000000  0.000000000  0.099766838

  length of vectors
    10.023370685 10.023370685 10.023370685     0.099766838  0.099766838  0.099766838

  position of ions in fractional coordinates (direct lattice)
     0.976666780  0.249583087  0.249871334
     0.976754681  0.749595384  0.749559523
     0.023226365  0.250214161  0.750095062
     0.023186793  0.749882584  0.249987693
     0.249822485  0.249789086  0.977113624
     0.249949776  0.749953339  0.023095543
     0.749549424  0.250473109  0.023150799
     0.749868329  0.749882953  0.976543938
     0.249962080  0.976499298  0.249988474
     0.249996118  0.023109256  0.750090284
     0.751651630  0.977042341  0.751392088
     0.750169241  0.023094422  0.249716466
     0.249814416  0.749789250  0.476708039
     0.249889114  0.249965289  0.523457204
     0.749692494  0.750448544  0.522924392
     0.749700117  0.249900489  0.476739515
     0.250114248  0.476721925  0.750205061
     0.249916903  0.522888317  0.250134452
     0.749790697  0.476695083  0.249790978
     0.750065290  0.523409812  0.749792789
     0.476723018  0.250094881  0.750086427
     0.476667405  0.749800589  0.249763419
     0.523169280  0.249870349  0.250273978
     0.523252990  0.750961866  0.749189669
     0.500019114  0.500131427  0.500209173
     0.500094302  0.000062954  0.000130027
     0.999918955  0.500159507  0.000128030
     0.000162840  0.000163342  0.500029657
     0.118195474  0.881871284  0.618144331
     0.118377724  0.118133081  0.381780678
     0.882152951  0.882047792  0.381824623
     0.882052441  0.118370132  0.617958403
     0.881750487  0.618272304  0.118109387
     0.881834519  0.382131214  0.881908365
     0.118099858  0.618153505  0.881865979
     0.117891406  0.381831723  0.118242768
     0.618108551  0.118171652  0.881831433
     0.618253043  0.881715113  0.118069937
     0.381955277  0.117969866  0.118321388
     0.382009809  0.881914872  0.882018668
     0.618090496  0.618106883  0.381818294
     0.618197800  0.381934022  0.618269203
     0.381910042  0.618219293  0.618275622
     0.381952941  0.381857836  0.382232814
     0.750014229  0.750204672  0.749762530
     0.749948835  0.249890540  0.249953228
     0.249918689  0.749719872  0.249874290
     0.249983199  0.249915789  0.750266233
     0.999719481  0.000115525  0.999703036
     0.000070899  0.499945182  0.499824035
     0.499823786  0.999912063  0.499598881
     0.499893175  0.499413138  0.000178233

  ion indices of the primitive-cell ions
   primitive index   ion index
                 1           1
                 2           2
                 3           3
                 4           4
                 5           5
                 6           6
                 7           7
                 8           8
                 9           9
                10          10
                11          11
[...]
     13     -43.2920      1.00000
     14     -43.2919      1.00000
     15     -43.2918      1.00000
     16     -43.2913      1.00000
     17     -43.2912      1.00000
     18     -43.2911      1.00000
     19     -43.2908      1.00000
     20     -43.2905      1.00000
     21     -43.2902      1.00000
     22     -43.2900      1.00000
     23     -43.2897      1.00000
     24     -43.2891      1.00000
     25     -14.1210      1.00000
     26     -14.1063      1.00000
     27     -14.1060      1.00000
     28     -14.1056      1.00000
     29     -11.2642      1.00000
     30     -11.2636      1.00000
     31     -11.2633      1.00000
     32     -11.2013      1.00000
     33     -11.1371      1.00000
     34     -11.1353      1.00000
     35     -11.1350      1.00000
     36     -11.1109      1.00000
     37     -11.1104      1.00000
     38     -11.1102      1.00000
     39     -11.1091      1.00000
     40     -11.1084      1.00000
     41     -11.0809      1.00000
     42     -11.0746      1.00000
     43     -11.0726      1.00000
     44     -11.0718      1.00000
     45      -9.6543      1.00000
     46      -9.6533      1.00000
     47      -9.6525      1.00000
     48      -9.6495      1.00000
     49      -7.1116      1.00000
     50      -6.8208      1.00000
     51      -6.8201      1.00000
     52      -6.8198      1.00000
     53      -4.1679      1.00000
     54      -4.1677      1.00000
     55      -4.1675      1.00000
     56      -3.8851      1.00000
     57      -3.7240      1.00000
     58      -3.7236      1.00000
     59      -3.6237      1.00000
     60      -3.6231      1.00000
[...]
    162       8.2095      0.00000
    163       8.2427      0.00000
    164       8.2869      0.00000
    165       8.3295      0.00000
    166       8.3988      0.00000
    167       8.4270      0.00000
    168       8.5117      0.00000
    169       8.5494      0.00000
    170       8.6626      0.00000
    171       8.6727      0.00000
    172       8.7553      0.00000
    173       8.8599      0.00000
    174       8.8817      0.00000
    175       8.9597      0.00000
    176       9.1677      0.00000

[...]

 soft charge-density along one line, spin component           2
         0         1         2         3         4         5         6         7         8         9
 total charge-density along one line

------------------------ aborting loop because EDIFF is reached ----------------------------------------

         DFTD3 V3.0 Rev 1
 Edisp (eV)  -12.09676

 E6    (eV) :    -7.4490
 E8    (eV) :    -4.6477
 % E8        : 38.42

  FORCE on cell =-STRESS in cart. coord.  units (eV):
  Direction    XX          YY          ZZ          XY          YZ          ZX
  Alpha Z   269.56312   269.56312   269.56312
  Ewald   -2759.43730 -2759.64211 -2759.61613     0.40435     0.48768     0.52713
  Hartree   844.03712   843.92170   843.93214     0.24053     0.26489     0.31589
  E(xc)    -946.88957  -946.88959  -946.88949    -0.00056    -0.00024    -0.00045
  Local   -1760.28615 -1759.94503 -1759.97834    -0.65847    -0.75889    -0.86148
  n-local  1481.14048  1481.12657  1481.12508     0.02564     0.02832     0.02968
  augment  -356.06630  -356.06227  -356.06197    -0.00437    -0.00368    -0.00474
  Kinetic  3240.61133  3240.56966  3240.56480     0.02880     0.01606     0.03156
  Fock        0.00000     0.00000     0.00000     0.00000     0.00000     0.00000
  vdW       -12.84950   -12.84956   -12.84954    -0.00005    -0.00002    -0.00002
  Total      -0.17677    -0.20749    -0.21032     0.03586     0.03412     0.03756
  in kB      -0.28124    -0.33012    -0.33463     0.05705     0.05428     0.05976

 VOLUME and BASIS-vectors are now :
  energy-cutoff  :      520.00
  volume of cell :     1007.03
      direct lattice vectors                 reciprocal lattice vectors
    10.023370685  0.000000000  0.000000000     0.099766838  0.000000000  0.000000000
     0.000000000 10.023370685  0.000000000     0.000000000  0.099766838  0.000000000
     0.000000000  0.000000000 10.023370685     0.000000000  0.000000000  0.099766838

  length of vectors
    10.023370685 10.023370685 10.023370685     0.099766838  0.099766838  0.099766838

 FORCES acting on ions
    electron-ion (+dipol)            ewald-force                    non-local-force                 convergence-correction
   -.679E+01 0.703E-01 0.456E-01   0.609E+01 -.586E-01 -.416E-01   0.693E+00 -.108E-01 -.486E-02   0.356E-03 0.402E-03 0.299E-03
   -.684E+01 0.266E+00 0.187E+00   0.614E+01 -.257E+00 -.181E+00   0.691E+00 -.138E-01 -.934E-02   0.571E-03 0.963E-03 0.113E-02
   0.678E+01 -.818E-01 0.774E-01   -.608E+01 0.783E-01 -.783E-01   -.693E+00 0.307E-02 0.838E-03   -.123E-03 0.456E-03 -.196E-03
   0.680E+01 -.226E-01 -.112E-01   -.610E+01 0.192E-01 0.108E-01   -.691E+00 0.185E-02 0.230E-02   0.147E-04 0.982E-03 -.604E-03
   0.771E-01 0.722E-01 -.680E+01   -.707E-01 -.661E-01 0.610E+01   -.513E-02 -.557E-02 0.692E+00   -.120E-03 -.500E-03 -.290E-03
   -.624E-01 -.384E-01 0.683E+01   0.610E-01 0.322E-01 -.613E+01   0.210E-02 0.557E-02 -.691E+00   0.507E-03 0.608E-03 0.598E-03
   0.103E+00 -.192E+00 0.679E+01   -.101E+00 0.181E+00 -.609E+01   -.525E-02 0.135E-01 -.690E+00   0.126E-02 -.298E-03 0.464E-03
   0.201E+00 0.226E+00 -.673E+01   -.198E+00 -.221E+00 0.603E+01   -.470E-02 -.639E-02 0.685E+00   0.990E-04 -.170E-03 0.322E-03
   0.874E-01 -.673E+01 0.100E+00   -.780E-01 0.603E+01 -.914E-01   -.520E-02 0.687E+00 -.517E-02   -.137E-02 0.407E-03 -.193E-02
   -.735E-01 0.679E+01 -.119E-01   0.723E-01 -.610E+01 0.130E-01   0.138E-02 -.691E+00 -.254E-03   0.667E-03 0.614E-03 0.458E-03
   -.352E+00 -.681E+01 -.364E+00   0.321E+00 0.612E+01 0.331E+00   0.361E-01 0.690E+00 0.379E-01   -.252E-02 0.399E-04 -.252E-02
   -.988E-01 0.680E+01 -.368E-01   0.923E-01 -.611E+01 0.382E-01   0.719E-02 -.691E+00 -.186E-02   0.353E-03 0.588E-03 0.100E-02
   0.528E-01 0.703E-01 -.680E+01   -.469E-01 -.676E-01 0.610E+01   -.606E-02 -.362E-02 0.688E+00   0.216E-03 0.505E-04 0.217E-03
   0.353E-02 -.491E-01 0.671E+01   -.110E-03 0.480E-01 -.602E+01   -.282E-02 0.220E-02 -.686E+00   0.633E-03 0.307E-03 0.177E-03
   0.160E+00 -.166E+00 0.678E+01   -.152E+00 0.164E+00 -.608E+01   -.110E-01 0.666E-02 -.690E+00   0.119E-02 -.161E-03 0.623E-03
   0.926E-01 0.117E+00 -.685E+01   -.852E-01 -.112E+00 0.616E+01   -.740E-02 -.576E-02 0.692E+00   0.560E-03 0.584E-04 0.321E-03
   -.121E+00 -.683E+01 -.491E-01   0.119E+00 0.614E+01 0.505E-01   0.405E-02 0.691E+00 -.409E-03   0.747E-03 0.379E-03 0.365E-03
   -.208E-01 0.679E+01 0.129E-01   0.189E-01 -.609E+01 -.152E-01   0.204E-02 -.691E+00 0.279E-02   0.162E-03 0.751E-03 0.218E-03
   -.154E-01 -.683E+01 -.647E-01   0.184E-01 0.613E+01 0.697E-01   -.303E-02 0.691E+00 -.515E-02   0.902E-03 0.505E-03 0.640E-03
   0.357E-01 0.669E+01 0.517E-01   -.405E-01 -.600E+01 -.519E-01   0.579E-02 -.685E+00 0.644E-03   -.830E-06 0.362E-03 0.383E-03
   -.682E+01 0.601E-01 0.122E+00   0.612E+01 -.606E-01 -.117E+00   0.691E+00 0.147E-02 -.367E-02   0.509E-03 -.337E-03 -.420E-03
   -.680E+01 0.802E-01 0.123E+00   0.610E+01 -.782E-01 -.115E+00   0.691E+00 -.175E-02 -.778E-02   0.597E-03 -.299E-03 -.749E-03
   0.682E+01 0.367E-01 -.137E+00   -.612E+01 -.381E-01 0.131E+00   -.693E+00 0.472E-03 0.621E-02   -.239E-03 -.481E-03 0.868E-03
   0.675E+01 -.279E+00 0.224E+00   -.605E+01 0.266E+00 -.211E+00   -.688E+00 0.216E-01 -.215E-01   0.252E-03 -.185E-02 0.283E-02
   -.910E-01 -.935E-01 -.130E+00   0.870E-01 0.883E-01 0.127E+00   0.415E-02 0.654E-02 0.354E-02   0.214E-03 -.182E-03 0.372E-03
   0.325E-01 0.459E-01 0.781E-01   -.339E-01 -.472E-01 -.775E-01   0.388E-02 0.292E-02 0.477E-03   -.399E-03 -.379E-03 -.135E-03
   -.119E+00 -.873E-01 -.685E-01   0.112E+00 0.826E-01 0.661E-01   0.793E-02 0.530E-02 0.273E-02   0.137E-03 0.179E-03 0.209E-03
   0.679E-01 -.393E-01 -.355E-01   -.659E-01 0.403E-01 0.302E-01   -.200E-04 -.792E-03 0.631E-02   -.243E-03 0.286E-03 -.261E-03
   -.451E+02 0.450E+02 -.451E+02   0.484E+02 -.483E+02 0.484E+02   -.330E+01 0.330E+01 -.330E+01   -.557E-04 0.171E-03 0.164E-03
   -.450E+02 -.451E+02 0.451E+02   0.483E+02 0.483E+02 -.484E+02   -.330E+01 -.329E+01 0.329E+01   -.490E-03 0.593E-04 -.356E-03
   0.451E+02 0.451E+02 0.450E+02   -.484E+02 -.484E+02 -.483E+02   0.329E+01 0.329E+01 0.330E+01   -.222E-03 0.217E-03 -.145E-03
   0.454E+02 -.452E+02 -.446E+02   -.487E+02 0.485E+02 0.479E+02   0.330E+01 -.331E+01 -.328E+01   -.742E-03 0.499E-04 -.821E-03
   0.450E+02 -.451E+02 -.451E+02   -.483E+02 0.484E+02 0.484E+02   0.330E+01 -.330E+01 -.329E+01   0.128E-03 -.252E-04 -.281E-04
   0.451E+02 0.450E+02 0.452E+02   -.484E+02 -.483E+02 -.485E+02   0.329E+01 0.329E+01 0.329E+01   0.553E-04 0.231E-04 -.171E-03
   -.452E+02 -.451E+02 0.450E+02   0.484E+02 0.484E+02 -.483E+02   -.329E+01 -.330E+01 0.330E+01   0.342E-03 0.170E-03 0.409E-03
   -.450E+02 0.450E+02 -.451E+02   0.483E+02 -.483E+02 0.484E+02   -.329E+01 0.330E+01 -.331E+01   -.120E-03 -.108E-03 -.254E-04
   -.447E+02 -.449E+02 0.455E+02   0.480E+02 0.482E+02 -.488E+02   -.329E+01 -.330E+01 0.331E+01   -.532E-03 -.424E-03 -.917E-03
   -.449E+02 0.452E+02 -.450E+02   0.482E+02 -.485E+02 0.483E+02   -.330E+01 0.330E+01 -.329E+01   -.357E-03 -.446E-03 -.195E-03
   0.452E+02 -.449E+02 -.450E+02   -.485E+02 0.482E+02 0.483E+02   0.329E+01 -.329E+01 -.331E+01   -.840E-03 -.536E-03 -.380E-03
   0.450E+02 0.453E+02 0.450E+02   -.483E+02 -.486E+02 -.483E+02   0.329E+01 0.330E+01 0.329E+01   -.200E-03 -.421E-03 0.498E-03
   -.452E+02 -.450E+02 0.450E+02   0.485E+02 0.483E+02 -.483E+02   -.330E+01 -.329E+01 0.330E+01   0.414E-03 -.299E-03 0.789E-05
   -.451E+02 0.451E+02 -.451E+02   0.484E+02 -.484E+02 0.483E+02   -.329E+01 0.329E+01 -.330E+01   -.121E-04 -.200E-03 -.239E-03
   0.449E+02 -.449E+02 -.453E+02   -.482E+02 0.482E+02 0.486E+02   0.329E+01 -.329E+01 -.330E+01   0.193E-03 -.645E-03 0.552E-03
   0.451E+02 0.451E+02 0.449E+02   -.484E+02 -.484E+02 -.482E+02   0.329E+01 0.330E+01 0.328E+01   -.179E-03 -.345E-03 0.165E-03
   0.368E+00 0.101E+00 0.170E+00   -.375E+00 -.999E-01 -.176E+00   0.776E-02 -.211E-02 0.801E-02   -.595E-03 -.420E-03 0.225E-03
   -.162E+00 -.927E-02 -.229E+00   0.164E+00 0.824E-02 0.228E+00   -.225E-02 0.211E-02 0.144E-02   0.638E-03 -.622E-04 0.782E-03
   -.152E-01 0.206E-01 0.149E+00   0.168E-01 -.251E-01 -.148E+00   -.128E-02 0.654E-02 -.101E-03   -.298E-03 0.420E-03 -.970E-03
   -.850E-01 0.244E-01 -.341E-02   0.853E-01 -.265E-01 0.852E-02   -.549E-03 0.311E-02 -.725E-02   0.222E-03 -.292E-04 -.253E-03
   -.541E+00 0.195E+00 -.450E+00   0.555E+00 -.200E+00 0.463E+00   -.190E-01 0.729E-02 -.192E-01   0.231E-02 -.568E-03 0.229E-02
   0.274E+00 0.919E-01 -.206E-01   -.284E+00 -.101E+00 0.128E-01   0.138E-01 0.132E-01 0.103E-01   -.957E-03 -.101E-02 -.358E-03
   -.411E+00 -.193E+00 -.565E+00   0.419E+00 0.201E+00 0.573E+00   -.121E-01 -.124E-01 -.111E-01   0.134E-02 0.199E-02 0.112E-02
   0.978E-01 -.786E+00 0.393E+00   -.103E+00 0.800E+00 -.406E+00   0.670E-02 -.211E-01 0.181E-01   -.465E-03 0.263E-02 -.103E-02
   -.662E-02 -.123E-01 0.258E-02   0.389E-13 -.533E-14 0.107E-13   -.257E-02 0.527E-02 -.159E-01   0.451E-02 0.347E-02 0.472E-02

 POSITION                                       TOTAL-FORCE (eV/Angst)
      9.78968      2.50187      2.50430         0.001449      0.001425     -0.000428
      9.79082      7.51244      7.51208         0.002258     -0.003082     -0.002819
      0.23269      2.50780      7.51842        -0.000483      0.000154     -0.000170
      0.23244      7.51583      2.50641         0.000217     -0.000444      0.001438
      2.50437      2.50402      9.79349         0.001146      0.000086     -0.001864
      2.50558      7.51699      0.23189         0.001218      0.000142      0.002340
      7.51190      2.51156      0.23218        -0.002096      0.002796      0.001262
      7.51600      7.51582      9.78850        -0.000762     -0.002240      0.001497
      2.50663      9.78815      2.50674         0.002805      0.001594      0.001730
      2.50569      0.23201      7.51866         0.000820      0.002381      0.001408
      7.53727      9.79304      7.53454         0.002406     -0.000203      0.002315
      7.51937      0.23183      2.50284         0.001071      0.002154      0.000552
      2.50398      7.51518      4.77840         0.000143     -0.000791      0.001303
      2.50478      2.50580      5.24661         0.001326      0.001525      0.000051
      7.51379      7.52334      5.24193        -0.001556      0.004663      0.002598
      7.51436      2.50444      4.77855         0.000706     -0.001177      0.000894
      2.50751      4.77854      7.51994         0.002675      0.001456      0.001474
      2.50508      5.24163      2.50735         0.000429      0.002680      0.000867
      7.51532      4.77827      2.50373         0.001063      0.001953      0.000756
      7.51842      5.24639      7.51544         0.001027      0.001222      0.001101
      4.77863      2.50721      7.51893         0.001954      0.000525      0.001230
      4.77824      7.51565      2.50379         0.002662     -0.000017      0.000009
      5.24383      2.50445      2.50860        -0.001051     -0.001353      0.001163
      5.24497      7.52942      7.50745         0.001223      0.006639     -0.004942
      5.01186      5.01220      5.01283         0.000390      0.001299      0.000704
      5.01229     -0.00006      0.00057         0.002323      0.001379      0.001169
     10.02266      5.01236      0.00047         0.000915      0.000796      0.000672
      0.00129      0.00090      5.01145         0.001871      0.000466      0.000962
      1.18436      8.83980      6.19570        -0.001419      0.001673     -0.000531
      1.18609      1.18387      3.82728        -0.003004     -0.001177      0.001779
      8.84157      8.84083      3.82703        -0.005350     -0.002962     -0.002282
      8.84107      1.18615      6.19412        -0.001991     -0.002791     -0.000330
      8.83834      6.19677      1.18369         0.001461     -0.003562     -0.001444
      8.83859      3.82980      8.83945        -0.002942     -0.004535     -0.002876
      1.18355      6.19570      8.83967         0.000230     -0.001457      0.001449
      1.18163      3.82765      1.18483         0.001255      0.000627     -0.001954
      6.19529      1.18402      8.83932        -0.001355     -0.003408      0.000178
      6.19653      8.83829      1.18322        -0.002452      0.001314     -0.001269
      3.82848      1.18249      1.18567        -0.001634     -0.000683     -0.003339
      3.82845      8.83944      8.84055        -0.005400     -0.004058     -0.002727
      6.19515      6.19538      3.82764         0.000424     -0.000742      0.002023
      6.19607      3.82859      6.19680        -0.000907     -0.000013     -0.001929
      3.82818      6.19640      6.19697         0.001440     -0.003115     -0.001897
      3.82800      3.82729      3.83080        -0.003892     -0.003049     -0.004562
      7.51788      7.51959      7.51542         0.000249     -0.001122      0.001975
      7.51691      2.50500      2.50544         0.000378      0.001067      0.001304
      2.50518      7.51503      2.50487         0.000154      0.002487      0.000243
      2.50565      2.50522      7.51994        -0.000066      0.001033     -0.002199
     10.01940      0.00168     10.01925        -0.003255      0.001740     -0.003258
      0.00160      5.01194      5.01052         0.002963      0.002566      0.002221
      5.00919     10.02178      5.00705        -0.002305     -0.001999     -0.002006
      5.01101      5.00450      0.00295         0.001272     -0.003863      0.004160
    total drift:                               -0.004688     -0.003551     -0.008572

  FREE ENERGIE OF THE ION-ELECTRON SYSTEM (eV)
  free  energy   TOTEN  =      -268.23215398 eV

  energy  without entropy=     -268.23215398  energy(sigma->0) =     -268.23215398

 d Force = 0.1423099E-04[ 0.642E-05, 0.220E-04]  d Energy = 0.1803114E-04-0.380E-05
 d Force = 0.8012565E-04[ 0.766E-04, 0.837E-04]  d Ewald  = 0.8012578E-04-0.129E-09

 stress matrix after NEB project (eV)
     -0.17677      0.03586      0.03756
      0.03586     -0.20749      0.03412
      0.03756      0.03412     -0.21032
  FORCES: max atom, RMS     0.008366    0.003630
  FORCE total and by dimension    0.026175    0.006639
  Stress total and by dimension    0.355328    0.210325
 Quasi-Newton relaxation of ions (Broydens 2nd method)
  g(Force)  = 0.331E-04   g(Stress)= 0.000E+00

 retain information from N=  2 steps
 eigenvalues of (default step * inverse Hessian matrix)
  average eigenvalue of G=   2.4863
 eigenvalue spectrum of G is  3.8542  1.1184

 reached required accuracy - stopping structural energy minimisation