 vasp.6.4.1 05Apr23 (build Jun 07 2023 15:38:11) complex

 executed on             LinuxIFC date 2023.10.16  22:51:34

 INCAR:
   GGA = PE
   PREC = Accu
   EDIFF = 1.e-6
   EDIFFG = -1.e-3
   ENCUT = 520.
   NELM = 100
   NELMDL = -10
   LASPH = .TRUE.
   LREAL = Auto
   LMAXMIX = 4
   ISPIN = 2
   LDIAG = .TRUE.
   LPLANE = .TRUE.
   IVDW = 12
   SIGMA = 0.03
   ISMEAR = 0
   NSW = 1000    number of steps for IOM
   IBRION = 2    ionic relax: 0-MD 1-quasi-New 2-CG
   ISIF = 2    ionic relaxation + stress tensor calcn.
   LCHARG = .FALSE.
   LWAVE = .FALSE.
   ALGO = F
   KPAR = 1
   NPAR = 4
   POTIM = 0.2

 POTCAR:    PAW_PBE Li_sv_GW 25Mar2010
 POTCAR:    PAW_PBE P_GW 19Mar2012
 POTCAR:    PAW_PBE S_GW 19Mar2012
 POTCAR:    PAW_PBE Cl_GW 19Mar2012
|           W    W    AA    RRRRR   N    N  II  N    N   GGGG   !!!           |
|           W    W   A  A   R    R  NN   N  II  NN   N  G    G  !!!           |
|           W    W  A    A  R    R  N N  N  II  N N  N  G       !!!           |
|           W WW W  AAAAAA  RRRRR   N  N N  II  N  N N  G  GGG   !            |
|           WW  WW  A    A  R   R   N   NN  II  N   NN  G    G                |
|           W    W  A    A  R    R  N    N  II  N    N   GGGG   !!!           |
|     You use a magnetic or noncollinear calculation, but did not specify     |
|     the initial magnetic moment with the MAGMOM tag. Note that a            |
|     default of 1 will be used for all atoms. This ferromagnetic setup       |
|     may break the symmetry of the crystal, in particular it may rule        |
|     out finding an antiferromagnetic solution. Thence, we recommend         |
|     setting the initial magnetic moment manually or verifying carefully     |
|     that this magnetic setup is desired.                                    |

   TITEL  = PAW_PBE Li_sv_GW 25Mar2010
   POMASS =    7.010; ZVAL   =    3.000    mass and valenz
   ENMAX  =  433.699; ENMIN  =  325.274 eV

   TITEL  = PAW_PBE P_GW 19Mar2012
   POMASS =   30.974; ZVAL   =    5.000    mass and valenz
   ENMAX  =  255.040; ENMIN  =  191.280 eV

[...]

   TITEL  = PAW_PBE Cl_GW 19Mar2012
   POMASS =   35.453; ZVAL   =    7.000    mass and valenz
   ENMAX  =  262.472; ENMIN  =  196.854 eV

 Optimization of the real space projectors (new method)

 maximal supplied QI-value         = 25.13
 optimisation between [QCUT,QGAM] = [ 11.56, 23.12] = [ 37.43,149.72] Ry
 Optimized for a Real-space Cutoff    1.28 Angstroem

   l    n(q)    QCUT    max X(q) W(low)/X(q) W(high)/X(q)  e(spline)
   0      9    11.561    87.733    0.11E-03    0.32E-04    0.56E-06
   0      9    11.561    82.800    0.11E-03    0.35E-04    0.56E-06
   0      9    11.561     2.509    0.22E-03    0.42E-04    0.79E-06
   1      8    11.561    12.580    0.94E-04    0.26E-03    0.21E-06
   1      8    11.561     1.319    0.33E-04    0.15E-03    0.19E-06
   2      8    11.561     1.993    0.36E-04    0.89E-04    0.26E-06
 Optimization of the real space projectors (new method)

[...]

   l    n(q)    QCUT    max X(q) W(low)/X(q) W(high)/X(q)  e(spline)
   0     10    11.508     7.541    0.34E-04    0.13E-04    0.69E-07
   0     10    11.508     1.809    0.49E-04    0.27E-04    0.14E-06
   1     10    11.508     4.107    0.27E-05    0.41E-05    0.14E-06
   1     10    11.508     2.196    0.26E-05    0.25E-05    0.22E-06
   2      9    11.508     4.265    0.18E-03    0.11E-03    0.81E-06
   2      9    11.508     1.925    0.97E-04    0.76E-04    0.47E-06
 Optimization of the real space projectors (new method)

 maximal supplied QI-value         = 19.84
 optimisation between [QCUT,QGAM] = [ 11.51, 23.22] = [ 37.09,150.92] Ry
 Optimized for a Real-space Cutoff    1.21 Angstroem

   l    n(q)    QCUT    max X(q) W(low)/X(q) W(high)/X(q)  e(spline)
   0      8    11.508     6.761    0.57E-04    0.57E-04    0.35E-07
   0      8    11.508     1.642    0.14E-03    0.14E-03    0.91E-07
   1      8    11.508     3.519    0.20E-04    0.72E-04    0.47E-07
   1      8    11.508     2.150    0.27E-04    0.11E-03    0.89E-07
   2      7    11.508     2.976    0.19E-03    0.33E-03    0.16E-06
   2      7    11.508     1.494    0.14E-03    0.29E-03    0.14E-06
  PAW_PBE Li_sv_GW 25Mar2010            :
  PAW_PBE P_GW 19Mar2012                :
  PAW_PBE S_GW 19Mar2012                :
  PAW_PBE Cl_GW 19Mar2012               :

 POSCAR: Li24 P4 S20 Cl4
  positions in direct lattice
  velocities in cartesian coordinates
 exchange correlation table for  LEXCH =        8
   RHO(1)=    0.500       N(1)  =     2000
   RHO(2)=  100.500       N(2)  =     4000

 VTST: version 4.1, (05/19/21)

 CHAIN: initializing optimizer

 OPT: Using VASP Conjugate-Gradient optimizer
 CHAIN: Read ICHAIN            0

 POSCAR: Li24 P4 S20 Cl4
  positions in direct lattice
  velocities in cartesian coordinates

 ion  position               nearest neighbor table
   1  0.979  0.216  0.215-
   2  0.979  0.715  0.716-
   3  0.032  0.261  0.761-
   4  0.280  0.412  0.912-
   5  0.216  0.094  0.935-
   6  0.241  0.746  0.034-
   7  0.788  0.201  0.026-
   8  0.750  0.738  1.000-
   9  0.077  0.931  0.221-
  10  0.347  0.997  0.685-
  11  0.825  0.973  0.818-
  12  0.686  0.050  0.326-
  13  0.077  0.721  0.431-
  14  0.347  0.185  0.497-
  15  0.686  0.826  0.550-
  16  0.825  0.318  0.473-
  17  0.216  0.435  0.594-
  18  0.241  0.534  0.246-
  19  0.750  0.500  0.238-
  20  0.788  0.526  0.701-
  21  0.498  0.304  0.804-
  22  0.451  0.824  0.324-
  23  0.521  0.318  0.176-
  24  0.521  0.676  0.818-
  25  0.503  0.513  0.502-  43 2.03  41 2.04  42 2.06  44 2.08
  26  0.503  0.002  0.013-  39 2.03  38 2.04  37 2.06  40 2.08
  27  0.003  0.503  0.003-  33 2.03  34 2.05  35 2.06  36 2.06
  28  0.003  0.013  0.513-  30 2.05  29 2.05  32 2.05  31 2.07
  29  0.124  0.887  0.630-  28 2.05
  30  0.124  0.130  0.387-  28 2.05
  31  0.880  0.890  0.390-  28 2.07
  32  0.874  0.131  0.631-  28 2.05
  33  0.915  0.637  0.137-  27 2.03
  34  0.865  0.390  0.890-  27 2.05
  35  0.131  0.605  0.869-  27 2.06
  36  0.131  0.369  0.105-  27 2.06
  37  0.624  0.109  0.876-  26 2.06
  38  0.622  0.887  0.142-  26 2.04
  39  0.376  0.126  0.123-  26 2.03
  40  0.379  0.877  0.892-  26 2.08
  41  0.622  0.642  0.387-  25 2.04
  42  0.624  0.376  0.609-  25 2.06
  43  0.376  0.623  0.626-  25 2.03
  44  0.379  0.392  0.377-  25 2.08
  45  0.749  0.751  0.767-
  46  0.749  0.267  0.251-
  47  0.236  0.762  0.262-
  48  0.270  0.237  0.737-
  49  0.987  0.036  0.011-
  50  0.987  0.511  0.536-
  51  0.507  0.997  0.497-
  52  0.498  0.484  0.984-

  LATTYP: Found a simple cubic cell.
 ALAT       =     9.7236445455

  Lattice vectors:

 A1 = (   9.7236445455,   0.0000000000,   0.0000000000)
 A2 = (   0.0000000000,   9.7236445455,   0.0000000000)
 A3 = (   0.0000000000,   0.0000000000,   9.7236445455)

Analysis of symmetry for initial positions (statically):
 Subroutine PRICEL returns:
 Original cell was already a primitive cell.

 Routine SETGRP: Setting up the symmetry group for a
 simple cubic supercell.

 Subroutine GETGRP returns: Found  2 space group operations
 (whereof  1 operations were pure point group operations)
 out of a pool of 48 trial point group operations.

The static configuration has the point symmetry C_1 .
 The point group associated with its full space group is C_1h.

Analysis of symmetry for dynamics (positions and initial velocities):
 Subroutine PRICEL returns:
 Original cell was already a primitive cell.

[...]

The dynamic configuration has the point symmetry C_1 .
 The point group associated with its full space group is C_1h.

Analysis of structural, dynamic, and magnetic symmetry:
 Subroutine PRICEL returns:
 Original cell was already a primitive cell.

 Routine SETGRP: Setting up the symmetry group for a
 simple cubic supercell.

 Subroutine GETGRP returns: Found  2 space group operations
 (whereof  1 operations were pure point group operations)
 out of a pool of 48 trial point group operations.

The overall configuration has the point symmetry C_1 .
 The point group associated with its full space group is C_1h.

 Subroutine INISYM returns: Found  2 space group operations
 (whereof  1 operations are pure point group operations),
 and found     1 'primitive' translations

                                     Primitive cell

  volume of cell :     919.3634

  direct lattice vectors                    reciprocal lattice vectors
     9.723644545  0.000000000  0.000000000     0.102842097  0.000000000  0.000000000
     0.000000000  9.723644545  0.000000000     0.000000000  0.102842097  0.000000000
     0.000000000  0.000000000  9.723644545     0.000000000  0.000000000  0.102842097

  length of vectors
     9.723644545  9.723644545  9.723644545     0.102842097  0.102842097  0.102842097

  position of ions in fractional coordinates (direct lattice)
     0.979075617  0.215906248  0.215069825
     0.979075617  0.715069825  0.715906248
     0.031731610  0.261004495  0.761004495
     0.279694832  0.411813484  0.911813484
     0.215855177  0.093871683  0.934898501
     0.240993585  0.745834067  0.033970388
     0.787877804  0.200901732  0.026393075
     0.749865798  0.738096447  0.999650257
     0.077484411  0.931337343  0.221024534
     0.346591588  0.997055968  0.684932372
     0.824595320  0.973317241  0.817706947
     0.685661612  0.050115402  0.326217684
     0.077484411  0.721024534  0.431337343
     0.346591588  0.184932372  0.497055968
     0.685661612  0.826217684  0.550115402
     0.824595320  0.317706947  0.473317241
     0.215855177  0.434898501  0.593871683
     0.240993585  0.533970388  0.245834067
     0.749865798  0.499650257  0.238096447
     0.787877804  0.526393075  0.700901732
     0.498185092  0.304001847  0.804001847
     0.450925030  0.824055115  0.324055115
     0.520937926  0.317539401  0.176212877
     0.520937926  0.676212877  0.817539401
     0.502886481  0.512806684  0.502360965
     0.502886481  0.002360965  0.012806684
     0.002793245  0.502834467  0.002834467
     0.002968368  0.012731138  0.512731138
     0.124314816  0.886583940  0.629878959
     0.124314816  0.129878959  0.386583940
     0.880496990  0.889959601  0.389959601
     0.874255831  0.131106866  0.631106866
     0.914656857  0.637015949  0.137015949
     0.865151676  0.389534952  0.889534952
     0.131405574  0.605037955  0.868606906
     0.131405574  0.368606906  0.105037955
     0.624490906  0.108825452  0.875864477
     0.622107367  0.887055205  0.142019287
     0.375513206  0.125871923  0.122627664
     0.379165757  0.876666858  0.891818318
     0.622107367  0.642019287  0.387055205
     0.624490906  0.375864477  0.608825452
     0.375513206  0.622627664  0.625871923
     0.379165757  0.391818318  0.376666858
     0.749267597  0.751071105  0.766512270
     0.749267597  0.266512270  0.251071105
     0.236169971  0.762129881  0.262129881
     0.269689046  0.236550065  0.736550065
     0.987485213  0.035683344  0.011320460
     0.987485213  0.511320460  0.535683344
     0.507401270  0.997206428  0.497206428
     0.497772647  0.484194901  0.984194901

  ion indices of the primitive-cell ions
   primitive index   ion index
                 1           1
                 2           2
[...]
     17     -42.4839      1.00000
     18     -42.4734      1.00000
     19     -42.4718      1.00000
     20     -42.4075      1.00000
     21     -42.4074      1.00000
     22     -42.1722      1.00000
     23     -42.1663      1.00000
     24     -42.0830      1.00000
     25     -13.2143      1.00000
     26     -13.1785      1.00000
     27     -13.0936      1.00000
     28     -13.0781      1.00000
     29     -12.7510      1.00000
     30     -12.7453      1.00000
     31     -12.6847      1.00000
     32     -12.4508      1.00000
     33     -10.4122      1.00000
     34     -10.3796      1.00000
     35     -10.3460      1.00000
     36     -10.2469      1.00000
     37     -10.2018      1.00000
     38     -10.1674      1.00000
     39     -10.1565      1.00000
     40     -10.1181      1.00000
     41     -10.0969      1.00000
     42     -10.0868      1.00000
     43     -10.0264      1.00000
     44      -9.9872      1.00000
     45      -8.7514      1.00000
     46      -8.6270      1.00000
     47      -8.6244      1.00000
     48      -7.8998      1.00000
     49      -6.2012      1.00000
     50      -5.8350      1.00000
     51      -5.7832      1.00000
     52      -5.7078      1.00000
     53      -3.3406      1.00000
     54      -3.3082      1.00000
     55      -3.2562      1.00000
     56      -2.9696      1.00000
     57      -2.8382      1.00000
     58      -2.8131      1.00000
     59      -2.6383      1.00000
     60      -2.6096      1.00000
[...]
    162       8.9855      0.00000
    163       9.0382      0.00000
    164       9.0680      0.00000
    165       9.0899      0.00000
    166       9.1910      0.00000
    167       9.2441      0.00000
    168       9.2782      0.00000
    169       9.3090      0.00000
    170       9.3768      0.00000
    171       9.4681      0.00000
    172       9.5037      0.00000
    173       9.6355      0.00000
    174       9.6964      0.00000
    175       9.8091      0.00000
    176       9.8895      0.00000

[...]

 soft charge-density along one line, spin component           2
         0         1         2         3         4         5         6         7         8         9
 total charge-density along one line

------------------------ aborting loop because EDIFF is reached ----------------------------------------

         DFTD3 V3.0 Rev 1
 Edisp (eV)  -13.28247

 E6    (eV) :    -8.1895
 E8    (eV) :    -5.0930
 % E8        : 38.34

  FORCE on cell =-STRESS in cart. coord.  units (eV):
  Direction    XX          YY          ZZ          XY          YZ          ZX
  Alpha Z   295.26681   295.26681   295.26681
  Ewald   -2847.37171 -2925.26837 -2925.26837   -15.45521   -40.13973   -15.45521
  Hartree   789.68854   750.10319   750.10319    -2.64162   -21.56919    -2.64162
  E(xc)    -947.43527  -947.65730  -947.65730    -0.01783    -0.01043    -0.01783
  Local   -1640.34121 -1528.59517 -1528.59517    14.74101    60.20644    14.74101
  n-local  1481.15575  1481.25936  1481.25619    -1.05112    -1.19023    -0.06359
  augment  -356.49977  -357.01497  -357.01497    -0.16671     0.22103    -0.16674
  Kinetic  3238.68729  3246.48105  3246.51135     4.18239    -0.32233     5.63485
  Fock        0.00000     0.00000     0.00000     0.00000     0.00000     0.00000
  vdW       -14.14835   -14.08728   -14.08728    -0.01682    -0.00099    -0.01682
  Total      -0.99793     0.50087     0.50087     0.79400    -2.80555     0.79400
  in kB      -1.73909     0.87286     0.87286     1.38371    -4.88923     1.38371

 VOLUME and BASIS-vectors are now :
  energy-cutoff  :      520.00
  volume of cell :      919.36
      direct lattice vectors                 reciprocal lattice vectors
     9.723644545  0.000000000  0.000000000     0.102842097  0.000000000  0.000000000
     0.000000000  9.723644545  0.000000000     0.000000000  0.102842097  0.000000000
     0.000000000  0.000000000  9.723644545     0.000000000  0.000000000  0.102842097

  length of vectors
     9.723644545  9.723644545  9.723644545     0.102842097  0.102842097  0.102842097

 FORCES acting on ions
    electron-ion (+dipol)            ewald-force                    non-local-force                 convergence-correction
   -.365E+01 -.315E+01 -.863E+01   0.315E+01 0.406E+01 0.944E+01   0.490E+00 -.919E+00 -.814E+00   -.193E-04 0.555E-04 -.352E-04
   -.365E+01 -.863E+01 -.315E+01   0.315E+01 0.944E+01 0.406E+01   0.490E+00 -.814E+00 -.919E+00   -.193E-04 -.352E-04 0.555E-04
   -.294E+01 0.272E+01 0.272E+01   0.308E+01 -.315E+01 -.315E+01   -.143E+00 0.436E+00 0.436E+00   -.430E-04 -.386E-05 -.386E-05
   -.111E+02 -.318E+00 -.318E+00   0.106E+02 0.100E+00 0.100E+00   0.471E+00 0.222E+00 0.222E+00   0.645E-04 0.830E-04 0.830E-04
   0.143E+02 0.102E+02 0.114E+01   -.134E+02 -.935E+01 -.121E+01   -.897E+00 -.851E+00 0.729E-01   -.102E-03 -.471E-04 0.206E-04
   -.964E+00 -.394E+01 0.607E+00   0.117E+01 0.427E+01 0.112E+01   -.209E+00 -.330E+00 -.172E+01   -.872E-04 -.632E-04 0.736E-04
   0.409E+01 0.192E+01 -.204E+01   -.512E+01 -.105E+01 0.258E+01   0.103E+01 -.871E+00 -.540E+00   0.384E-04 -.127E-04 -.376E-05
   0.611E+01 0.445E+01 -.110E+02   -.537E+01 -.405E+01 0.103E+02   -.744E+00 -.407E+00 0.718E+00   0.577E-04 -.108E-03 0.460E-04
   -.215E+01 0.410E+01 0.202E+02   0.375E+01 -.571E+01 -.191E+02   -.159E+01 0.161E+01 -.103E+01   0.498E-04 -.891E-04 -.986E-04
   -.555E+01 0.109E+02 0.764E+01   0.488E+01 -.109E+02 -.656E+01   0.671E+00 -.337E-01 -.107E+01   -.145E-04 0.133E-04 -.228E-04
   -.990E+01 0.888E+01 -.501E+01   0.840E+01 -.953E+01 0.408E+01   0.150E+01 0.646E+00 0.927E+00   0.512E-04 -.965E-04 0.636E-04
   0.413E+01 -.342E+01 -.431E+01   -.347E+01 0.443E+01 0.319E+01   -.674E+00 -.102E+01 0.112E+01   -.303E-05 0.563E-04 0.140E-04
   -.215E+01 0.202E+02 0.410E+01   0.375E+01 -.191E+02 -.571E+01   -.159E+01 -.103E+01 0.161E+01   0.498E-04 -.986E-04 -.891E-04
   -.555E+01 0.764E+01 0.109E+02   0.488E+01 -.656E+01 -.109E+02   0.671E+00 -.107E+01 -.337E-01   -.145E-04 -.228E-04 0.133E-04
   0.413E+01 -.431E+01 -.342E+01   -.347E+01 0.319E+01 0.443E+01   -.674E+00 0.112E+01 -.102E+01   -.303E-05 0.140E-04 0.563E-04
   -.990E+01 -.501E+01 0.888E+01   0.840E+01 0.408E+01 -.953E+01   0.150E+01 0.927E+00 0.646E+00   0.512E-04 0.636E-04 -.965E-04
   0.143E+02 0.114E+01 0.102E+02   -.134E+02 -.121E+01 -.935E+01   -.897E+00 0.729E-01 -.851E+00   -.102E-03 0.206E-04 -.471E-04
   -.964E+00 0.607E+00 -.394E+01   0.117E+01 0.112E+01 0.427E+01   -.209E+00 -.172E+01 -.330E+00   -.872E-04 0.736E-04 -.632E-04
   0.611E+01 -.110E+02 0.445E+01   -.537E+01 0.103E+02 -.405E+01   -.744E+00 0.718E+00 -.407E+00   0.577E-04 0.460E-04 -.108E-03
   0.409E+01 -.204E+01 0.192E+01   -.512E+01 0.258E+01 -.105E+01   0.103E+01 -.540E+00 -.871E+00   0.384E-04 -.376E-05 -.127E-04
   -.718E+01 -.613E+00 -.613E+00   0.701E+01 -.236E+00 -.236E+00   0.160E+00 0.852E+00 0.852E+00   0.317E-04 0.511E-04 0.511E-04
   0.746E+01 0.210E+01 0.210E+01   -.934E+01 -.305E+01 -.305E+01   0.188E+01 0.950E+00 0.950E+00   -.952E-04 -.440E-04 -.440E-04
   0.216E+00 -.103E+02 -.313E+01   0.166E+00 0.921E+01 0.373E+01   -.380E+00 0.111E+01 -.591E+00   0.468E-04 0.122E-03 0.226E-04
   0.216E+00 -.313E+01 -.103E+02   0.166E+00 0.373E+01 0.921E+01   -.380E+00 -.591E+00 0.111E+01   0.468E-04 0.226E-04 0.122E-03
   -.361E+01 -.736E+01 0.131E+02   0.355E+01 0.830E+01 -.124E+02   0.607E-01 -.937E+00 -.705E+00   0.369E-05 0.324E-04 -.156E-03
   -.361E+01 0.131E+02 -.736E+01   0.355E+01 -.124E+02 0.830E+01   0.607E-01 -.705E+00 -.937E+00   0.369E-05 -.156E-03 0.324E-04
   0.159E+02 -.150E+02 -.150E+02   -.161E+02 0.154E+02 0.154E+02   0.221E+00 -.335E+00 -.335E+00   -.888E-04 0.365E-04 0.365E-04
   -.324E+01 -.681E+01 -.681E+01   0.357E+01 0.684E+01 0.684E+01   -.332E+00 -.423E-01 -.423E-01   0.864E-04 0.304E-04 0.304E-04
   -.564E+02 0.360E+02 -.496E+02   0.598E+02 -.391E+02 0.524E+02   -.340E+01 0.314E+01 -.275E+01   0.962E-04 0.539E-04 0.977E-04
   -.564E+02 -.496E+02 0.360E+02   0.598E+02 0.524E+02 -.391E+02   -.340E+01 -.275E+01 0.314E+01   0.962E-04 0.977E-04 0.539E-04
   0.489E+02 0.537E+02 0.537E+02   -.512E+02 -.567E+02 -.567E+02   0.233E+01 0.301E+01 0.301E+01   0.342E-05 -.873E-04 -.873E-04
   0.543E+02 -.277E+02 -.277E+02   -.581E+02 0.300E+02 0.300E+02   0.374E+01 -.227E+01 -.227E+01   0.154E-04 0.165E-04 0.165E-04
   0.203E+02 -.601E+02 -.601E+02   -.210E+02 0.641E+02 0.641E+02   0.722E+00 -.405E+01 -.405E+01   -.837E-04 0.427E-04 0.427E-04
   0.634E+02 0.212E+02 0.212E+02   -.675E+02 -.239E+02 -.239E+02   0.406E+01 0.264E+01 0.264E+01   0.231E-04 0.131E-03 0.131E-03
   -.410E+02 -.595E+02 0.425E+02   0.441E+02 0.615E+02 -.457E+02   -.315E+01 -.199E+01 0.326E+01   -.140E-03 0.185E-03 0.113E-03
   -.410E+02 0.425E+02 -.595E+02   0.441E+02 -.457E+02 0.615E+02   -.315E+01 0.326E+01 -.199E+01   -.140E-03 0.113E-03 0.185E-03
   -.267E+02 -.200E+02 0.579E+02   0.293E+02 0.222E+02 -.623E+02   -.255E+01 -.218E+01 0.435E+01   0.116E-03 -.107E-03 -.110E-03
   -.392E+02 0.563E+02 -.357E+02   0.420E+02 -.592E+02 0.390E+02   -.283E+01 0.294E+01 -.325E+01   -.156E-04 -.197E-03 -.111E-03
   0.482E+02 -.289E+02 -.685E+02   -.518E+02 0.310E+02 0.718E+02   0.358E+01 -.219E+01 -.328E+01   0.887E-05 -.625E-04 0.110E-03
   0.340E+02 0.528E+02 0.324E+02   -.370E+02 -.559E+02 -.354E+02   0.297E+01 0.306E+01 0.299E+01   -.805E-04 -.123E-03 0.883E-04
   -.392E+02 -.357E+02 0.563E+02   0.420E+02 0.390E+02 -.592E+02   -.283E+01 -.325E+01 0.294E+01   -.156E-04 -.111E-03 -.197E-03
   -.267E+02 0.579E+02 -.200E+02   0.293E+02 -.623E+02 0.222E+02   -.255E+01 0.435E+01 -.218E+01   0.116E-03 -.110E-03 -.107E-03
   0.482E+02 -.685E+02 -.289E+02   -.518E+02 0.718E+02 0.310E+02   0.358E+01 -.328E+01 -.219E+01   0.887E-05 0.110E-03 -.625E-04
   0.340E+02 0.324E+02 0.528E+02   -.370E+02 -.354E+02 -.559E+02   0.297E+01 0.299E+01 0.306E+01   -.805E-04 0.883E-04 -.123E-03
   0.126E+02 -.119E+02 -.613E+01   -.130E+02 0.122E+02 0.596E+01   0.376E+00 -.265E+00 0.177E+00   0.237E-05 0.522E-04 0.181E-03
   0.126E+02 -.613E+01 -.119E+02   -.130E+02 0.596E+01 0.122E+02   0.376E+00 0.177E+00 -.265E+00   0.237E-05 0.181E-03 0.522E-04
   -.195E+02 -.572E+01 -.572E+01   0.198E+02 0.619E+01 0.619E+01   -.392E+00 -.481E+00 -.481E+00   0.190E-03 -.436E-04 -.436E-04
   0.125E+01 0.115E+02 0.115E+02   -.118E+01 -.116E+02 -.116E+02   -.658E-01 0.166E+00 0.166E+00   -.876E-04 -.146E-03 -.146E-03
   -.448E+01 0.489E+02 0.791E+01   0.433E+01 -.496E+02 -.817E+01   0.154E+00 0.666E+00 0.258E+00   0.828E-04 -.502E-03 -.146E-03
   -.448E+01 0.791E+01 0.489E+02   0.433E+01 -.817E+01 -.496E+02   0.154E+00 0.258E+00 0.666E+00   0.828E-04 -.146E-03 -.502E-03
   0.163E+01 -.791E+01 -.791E+01   -.134E+01 0.812E+01 0.812E+01   -.291E+00 -.221E+00 -.221E+00   -.200E-03 0.132E-03 0.132E-03
   -.299E+02 -.418E+02 -.418E+02   0.307E+02 0.424E+02 0.424E+02   -.774E+00 -.647E+00 -.647E+00   0.331E-03 0.443E-03 0.443E-03
   -.400E+00 0.471E+00 0.471E+00   -.142E-13 -.568E-13 -.995E-13   0.384E+00 -.473E+00 -.473E+00   0.331E-03 -.490E-04 -.490E-04

 POSITION                                       TOTAL-FORCE (eV/Angst)
      9.52018      2.09938      2.09125        -0.000114     -0.000492     -0.000300
      9.52018      6.95307      6.96120        -0.000114     -0.000300     -0.000492
      0.30854      2.53791      7.39973        -0.000233     -0.000096     -0.000096
      2.71967      4.00433      8.86616         0.000539      0.000168      0.000168
      2.09890      0.91279      9.09064        -0.000003      0.000478      0.000570
      2.34331      7.25222      0.33032        -0.000867     -0.000075     -0.000009
      7.66104      1.95348      0.25663        -0.000220     -0.000495     -0.000124
      7.29143      7.17697      9.72025         0.000167     -0.000549      0.000100
      0.75343      9.05599      2.14916         0.000102     -0.000057      0.000006
      3.37014      9.69502      6.66005         0.000210      0.000144      0.000276
      8.01808      9.46418      7.95110         0.000415     -0.000282      0.000181
      6.66713      0.48731      3.17203        -0.000108      0.000094      0.000291
      0.75343      7.01099      4.19417         0.000102      0.000006     -0.000057
      3.37014      1.79823      4.83320         0.000210      0.000276      0.000144
      6.66713      8.03386      5.34913        -0.000108      0.000291      0.000094
      8.01808      3.08928      4.60236         0.000415      0.000181     -0.000282
      2.09890      4.22882      5.77461        -0.000003      0.000570      0.000478
      2.34331      5.19214      2.39040        -0.000867     -0.000009     -0.000075
      7.29143      4.85842      2.31515         0.000167      0.000100     -0.000549
      7.66104      5.11846      6.81530        -0.000220     -0.000124     -0.000495
      4.84418      2.95602      7.81784         0.000339      0.000333      0.000333
      4.38465      8.01282      3.15100         0.000500      0.000183      0.000183
      5.06541      3.08765      1.71344        -0.000171      0.000405      0.000292
      5.06541      6.57526      7.94948        -0.000171      0.000292      0.000405
      4.88989      4.98635      4.88478        -0.000068      0.000266      0.000003
      4.88989      0.02296      0.12453        -0.000068      0.000003      0.000266
      0.02716      4.88938      0.02756         0.000143     -0.000402     -0.000402
      0.02886      0.12379      4.98561        -0.000058     -0.000157     -0.000157
      1.20879      8.62083      6.12472        -0.000078     -0.000041      0.000071
      1.20879      1.26290      3.75901        -0.000078      0.000071     -0.000041
      8.56164      8.65365      3.79182         0.000164     -0.000167     -0.000167
      8.50094      1.27483      6.13665        -0.000383     -0.000187     -0.000187
      8.89383      6.19412      1.33229         0.000852      0.000042      0.000042
      8.41241      3.78770      8.64952        -0.000395     -0.000026     -0.000026
      1.27774      5.88316      8.44601         0.000107     -0.000597     -0.000549
      1.27774      3.58419      1.02133         0.000107     -0.000549     -0.000597
      6.07232      1.05817      8.51659        -0.000295     -0.000250     -0.000172
      6.04916      8.62541      1.38094         0.000400      0.000022      0.000013
      3.65137      1.22393      1.19241         0.000251     -0.000080      0.000592
      3.68686      8.52440      8.67174        -0.000526      0.000118      0.000467
      6.04916      6.24277      3.76359         0.000400      0.000013      0.000022
      6.07232      3.65476      5.91999        -0.000295     -0.000172     -0.000250
      3.65137      6.05423      6.08575         0.000251      0.000592     -0.000080
      3.68686      3.80992      3.66258        -0.000526      0.000467      0.000118
      7.28561      7.30314      7.45329         0.000060     -0.000221     -0.000039
      7.28561      2.59147      2.44132         0.000060     -0.000039     -0.000221
      2.29645      7.41068      2.54886         0.000251      0.000049      0.000049
      2.62236      2.30013      7.16196         0.000025      0.000278      0.000278
      9.60195      0.34694      0.11007        -0.000111      0.000048      0.000081
      9.60195      4.97189      5.20877        -0.000111      0.000081      0.000048
      4.93380      9.69649      4.83467         0.000198     -0.000049     -0.000049
      4.84019      4.70816      9.56998        -0.000240     -0.000155     -0.000155
    total drift:                               -0.015674     -0.002305     -0.002288

  FREE ENERGIE OF THE ION-ELECTRON SYSTEM (eV)
  free  energy   TOTEN  =      -271.37356558 eV

  energy  without entropy=     -271.37356558  energy(sigma->0) =     -271.37356558

 d Force = 0.6449566E-06[ 0.404E-06, 0.885E-06]  d Energy = 0.1240985E-05-0.596E-06
 d Force = 0.6567687E-02[ 0.657E-02, 0.657E-02]  d Ewald  = 0.6567687E-02 0.291E-10

 stress matrix after NEB project (eV)
     -0.99793      0.79400      0.79400
      0.79400      0.50087     -2.80555
      0.79400     -2.80555      0.50087
  FORCES: max atom, RMS     0.000870    0.000509
  FORCE total and by dimension    0.003673    0.000867
  Stress total and by dimension    4.445397    2.805547
 Steepest descent step on ions:
 trial-energy change:   -0.000001  1 .order   -0.000001   -0.000001   -0.000000
  (g-gl).g = 0.885E-06      g.g   = 0.885E-06  gl.gl    = 0.000E+00
 g(Force)  = 0.885E-06   g(Stress)= 0.000E+00 ortho     = 0.000E+00
 gamma     =   0.00000
 trial     =   1.00000
 opt step  =   1.84094  (harmonic =   1.84094) maximal distance =0.00005458
 next E    =  -271.373565   (d E  =  -0.00000)

 reached required accuracy - stopping structural energy minimisation