 vasp.6.4.1 05Apr23 (build Jun 07 2023 15:38:11) complex

 executed on             LinuxIFC date 2023.10.19  05:20:00

 INCAR:
   GGA = PE
   PREC = Accu
   EDIFF = 1.e-6
   EDIFFG = -1.e-3
   ENCUT = 520.
   NELM = 100
   NELMDL = -10
   LASPH = .TRUE.
   LREAL = Auto
   LMAXMIX = 4
   ISPIN = 2
   LDIAG = .TRUE.
   LPLANE = .TRUE.
   IVDW = 12
   SIGMA = 0.03
   ISMEAR = 0
   NSW = 1000    number of steps for IOM
   IBRION = 2    ionic relax: 0-MD 1-quasi-New 2-CG
   ISIF = 2    ionic relaxation + stress tensor calcn.
   LCHARG = .FALSE.
   LWAVE = .FALSE.
   ALGO = F
   KPAR = 1
   NPAR = 4
   POTIM = 0.2

 POTCAR:    PAW_PBE Li_sv_GW 25Mar2010
 POTCAR:    PAW_PBE P_GW 19Mar2012
 POTCAR:    PAW_PBE S_GW 19Mar2012
 POTCAR:    PAW_PBE Cl_GW 19Mar2012
|           W    W    AA    RRRRR   N    N  II  N    N   GGGG   !!!           |
|           W    W   A  A   R    R  NN   N  II  NN   N  G    G  !!!           |
|           W    W  A    A  R    R  N N  N  II  N N  N  G       !!!           |
|           W WW W  AAAAAA  RRRRR   N  N N  II  N  N N  G  GGG   !            |
|           WW  WW  A    A  R   R   N   NN  II  N   NN  G    G                |
|           W    W  A    A  R    R  N    N  II  N    N   GGGG   !!!           |
|     You use a magnetic or noncollinear calculation, but did not specify     |
|     the initial magnetic moment with the MAGMOM tag. Note that a            |
|     default of 1 will be used for all atoms. This ferromagnetic setup       |
|     may break the symmetry of the crystal, in particular it may rule        |
|     out finding an antiferromagnetic solution. Thence, we recommend         |
|     setting the initial magnetic moment manually or verifying carefully     |
|     that this magnetic setup is desired.                                    |

   TITEL  = PAW_PBE Li_sv_GW 25Mar2010
   POMASS =    7.010; ZVAL   =    3.000    mass and valenz
   ENMAX  =  433.699; ENMIN  =  325.274 eV

   TITEL  = PAW_PBE P_GW 19Mar2012
   POMASS =   30.974; ZVAL   =    5.000    mass and valenz
   ENMAX  =  255.040; ENMIN  =  191.280 eV

[...]

   TITEL  = PAW_PBE Cl_GW 19Mar2012
   POMASS =   35.453; ZVAL   =    7.000    mass and valenz
   ENMAX  =  262.472; ENMIN  =  196.854 eV

 Optimization of the real space projectors (new method)

 maximal supplied QI-value         = 25.13
 optimisation between [QCUT,QGAM] = [ 11.56, 23.12] = [ 37.43,149.72] Ry
 Optimized for a Real-space Cutoff    1.28 Angstroem

   l    n(q)    QCUT    max X(q) W(low)/X(q) W(high)/X(q)  e(spline)
   0      9    11.561    87.733    0.11E-03    0.32E-04    0.56E-06
   0      9    11.561    82.800    0.11E-03    0.35E-04    0.56E-06
   0      9    11.561     2.509    0.22E-03    0.42E-04    0.79E-06
   1      8    11.561    12.580    0.94E-04    0.26E-03    0.21E-06
   1      8    11.561     1.319    0.33E-04    0.15E-03    0.19E-06
   2      8    11.561     1.993    0.36E-04    0.89E-04    0.26E-06
 Optimization of the real space projectors (new method)

[...]

   l    n(q)    QCUT    max X(q) W(low)/X(q) W(high)/X(q)  e(spline)
   0     10    11.508     7.541    0.34E-04    0.13E-04    0.69E-07
   0     10    11.508     1.809    0.49E-04    0.27E-04    0.14E-06
   1     10    11.508     4.107    0.27E-05    0.41E-05    0.14E-06
   1     10    11.508     2.196    0.26E-05    0.25E-05    0.22E-06
   2      9    11.508     4.265    0.18E-03    0.11E-03    0.81E-06
   2      9    11.508     1.925    0.97E-04    0.76E-04    0.47E-06
 Optimization of the real space projectors (new method)

 maximal supplied QI-value         = 19.84
 optimisation between [QCUT,QGAM] = [ 11.51, 23.22] = [ 37.09,150.92] Ry
 Optimized for a Real-space Cutoff    1.21 Angstroem

   l    n(q)    QCUT    max X(q) W(low)/X(q) W(high)/X(q)  e(spline)
   0      8    11.508     6.761    0.57E-04    0.57E-04    0.35E-07
   0      8    11.508     1.642    0.14E-03    0.14E-03    0.91E-07
   1      8    11.508     3.519    0.20E-04    0.72E-04    0.47E-07
   1      8    11.508     2.150    0.27E-04    0.11E-03    0.89E-07
   2      7    11.508     2.976    0.19E-03    0.33E-03    0.16E-06
   2      7    11.508     1.494    0.14E-03    0.29E-03    0.14E-06
  PAW_PBE Li_sv_GW 25Mar2010            :
  PAW_PBE P_GW 19Mar2012                :
  PAW_PBE S_GW 19Mar2012                :
  PAW_PBE Cl_GW 19Mar2012               :

 POSCAR: Li24 P4 S20 Cl4
  positions in direct lattice
  velocities in cartesian coordinates
 exchange correlation table for  LEXCH =        8
   RHO(1)=    0.500       N(1)  =     2000
   RHO(2)=  100.500       N(2)  =     4000

 VTST: version 4.1, (05/19/21)

 CHAIN: initializing optimizer

 OPT: Using VASP Conjugate-Gradient optimizer
 CHAIN: Read ICHAIN            0

 POSCAR: Li24 P4 S20 Cl4
  positions in direct lattice
  velocities in cartesian coordinates

 ion  position               nearest neighbor table
   1  0.989  0.295  0.290-
   2  0.935  0.551  0.703-
   3  0.066  0.199  0.874-
   4  0.016  0.730  0.275-
   5  0.970  0.835  0.822-
   6  0.212  0.798  0.012-
   7  0.679  0.323  0.033-
   8  0.659  0.719  0.981-
   9  0.194  0.996  0.199-
  10  0.296  0.018  0.695-
  11  0.725  0.976  0.711-
  12  0.824  0.042  0.152-
  13  0.209  0.676  0.471-
  14  0.198  0.322  0.541-
  15  0.801  0.717  0.513-
  16  0.733  0.165  0.470-
  17  0.310  0.454  0.849-
  18  0.334  0.544  0.178-
  19  0.775  0.487  0.299-
  20  0.661  0.515  0.795-
  21  0.494  0.218  0.708-
  22  0.461  0.848  0.328-
  23  0.520  0.205  0.282-
  24  0.530  0.791  0.671-
  25  0.502  0.500  0.497-  44 2.04  43 2.05  42 2.06  41 2.06
  26  0.503  0.011  0.001-  39 2.02  37 2.06  38 2.06  40 2.07
  27  0.994  0.507  0.001-  36 2.03  33 2.05  34 2.07  35 2.08
  28  0.011  0.006  0.508-  32 2.05  29 2.05  30 2.05  31 2.06
  29  0.122  0.861  0.618-  28 2.05
  30  0.141  0.130  0.393-  28 2.05
  31  0.873  0.908  0.377-  28 2.06
  32  0.905  0.127  0.645-  28 2.05
  33  0.865  0.632  0.114-  27 2.05
  34  0.874  0.381  0.877-  27 2.07
  35  0.113  0.625  0.866-  27 2.08
  36  0.130  0.388  0.109-  27 2.03
  37  0.643  0.124  0.886-  26 2.06
  38  0.619  0.899  0.142-  26 2.06
  39  0.371  0.140  0.101-  26 2.02
  40  0.401  0.872  0.873-  26 2.07
  41  0.605  0.645  0.380-  25 2.06
  42  0.646  0.377  0.595-  25 2.06
  43  0.380  0.602  0.639-  25 2.05
  44  0.374  0.386  0.372-  25 2.04
  45  0.757  0.737  0.749-
  46  0.756  0.255  0.249-
  47  0.250  0.763  0.247-
  48  0.265  0.245  0.751-
  49  0.025  0.988  0.009-
  50  0.992  0.528  0.464-
  51  0.526  0.008  0.532-
  52  0.514  0.508  0.993-

  LATTYP: Found a simple cubic cell.
 ALAT       =     9.6427073438

  Lattice vectors:

 A1 = (   9.6427073438,   0.0000000000,   0.0000000000)
 A2 = (   0.0000000000,   9.6427073438,   0.0000000000)
 A3 = (   0.0000000000,   0.0000000000,   9.6427073438)

Analysis of symmetry for initial positions (statically):
 Subroutine PRICEL returns:
 Original cell was already a primitive cell.

 Routine SETGRP: Setting up the symmetry group for a
 simple cubic supercell.

 Subroutine GETGRP returns: Found  1 space group operations
 (whereof  1 operations were pure point group operations)
 out of a pool of 48 trial point group operations.

The static configuration has the point symmetry C_1 .

Analysis of symmetry for dynamics (positions and initial velocities):
 Subroutine PRICEL returns:
 Original cell was already a primitive cell.

[...]

The dynamic configuration has the point symmetry C_1 .

Analysis of structural, dynamic, and magnetic symmetry:
 Subroutine PRICEL returns:
 Original cell was already a primitive cell.

 Routine SETGRP: Setting up the symmetry group for a
 simple cubic supercell.

 Subroutine GETGRP returns: Found  1 space group operations
 (whereof  1 operations were pure point group operations)
 out of a pool of 48 trial point group operations.

The overall configuration has the point symmetry C_1 .

 Subroutine INISYM returns: Found  1 space group operations
 (whereof  1 operations are pure point group operations),
 and found     1 'primitive' translations

                                     Primitive cell

  volume of cell :     896.5963

  direct lattice vectors                    reciprocal lattice vectors
     9.642707344  0.000000000  0.000000000     0.103705315  0.000000000  0.000000000
     0.000000000  9.642707344  0.000000000     0.000000000  0.103705315  0.000000000
     0.000000000  0.000000000  9.642707344     0.000000000  0.000000000  0.103705315

  length of vectors
     9.642707344  9.642707344  9.642707344     0.103705315  0.103705315  0.103705315

  position of ions in fractional coordinates (direct lattice)
     0.988961891  0.295307284  0.290102856
     0.935224197  0.551413670  0.702674548
     0.066098435  0.199151525  0.874423365
     0.016051185  0.730499061  0.274695822
     0.970315064  0.834673598  0.822444878
     0.211995895  0.797966007  0.012239726
     0.678509682  0.323201987  0.032907300
     0.658871851  0.718854152  0.980759629
     0.194285218  0.995706516  0.199295340
     0.295681262  0.018166465  0.694713717
     0.724980597  0.975523237  0.710750636
     0.824063178  0.041599797  0.151598420
     0.208809771  0.676069875  0.471186748
     0.198223609  0.322096978  0.541403155
     0.800613040  0.716900793  0.513451112
     0.733087207  0.164712161  0.470200023
     0.310346803  0.454228483  0.849226716
     0.333637621  0.543551165  0.178168785
     0.775112137  0.487138752  0.298911710
     0.660566761  0.514966151  0.795096773
     0.494020362  0.218016217  0.708248955
     0.461114478  0.848499924  0.327538257
     0.520112469  0.205371080  0.282249334
     0.529797428  0.790502449  0.670649590
     0.501717547  0.499990123  0.497329814
     0.502699624  0.011066388  0.001262824
     0.994205242  0.506909816  0.001384029
     0.010892633  0.005588220  0.507578560
     0.121576699  0.861049302  0.617784577
     0.140858636  0.129794166  0.393449959
     0.872520516  0.908360590  0.376690715
     0.905426229  0.127467830  0.645489241
     0.864542226  0.631992278  0.114171674
     0.873825857  0.380635425  0.877082737
     0.113356687  0.625131578  0.866385054
     0.130170743  0.388102171  0.109340241
     0.642580480  0.124332767  0.886029816
     0.618838210  0.898952748  0.141624038
     0.370843650  0.140080239  0.100996755
     0.401482641  0.872064221  0.873484752
     0.605147749  0.645003344  0.379568837
     0.646353791  0.377495053  0.595151846
     0.379622283  0.601579523  0.639167486
     0.374401977  0.386050056  0.371735246
     0.756902435  0.736525448  0.748823952
     0.755819381  0.255232675  0.249194116
     0.249652584  0.762515143  0.247341792
     0.265123707  0.244755531  0.751163235
     0.024784744  0.988234678  0.008564595
     0.991561091  0.528232407  0.463861313
     0.525504285  0.008256919  0.532463167
     0.513615252  0.508378783  0.992807712

  ion indices of the primitive-cell ions
   primitive index   ion index
                 1           1
                 2           2
                 3           3
                 4           4
                 5           5
                 6           6
                 7           7
                 8           8
[...]
     17     -42.2571      1.00000
     18     -42.2437      1.00000
     19     -42.2323      1.00000
     20     -42.1781      1.00000
     21     -42.1321      1.00000
     22     -42.1213      1.00000
     23     -42.0428      1.00000
     24     -41.9915      1.00000
     25     -13.0445      1.00000
     26     -12.9973      1.00000
     27     -12.9407      1.00000
     28     -12.7831      1.00000
     29     -12.7509      1.00000
     30     -12.6343      1.00000
     31     -12.5295      1.00000
     32     -12.4633      1.00000
     33     -10.2675      1.00000
     34     -10.2213      1.00000
     35     -10.1809      1.00000
     36     -10.0875      1.00000
     37     -10.0245      1.00000
     38      -9.9930      1.00000
     39      -9.9665      1.00000
     40      -9.9275      1.00000
     41      -9.8829      1.00000
     42      -9.8487      1.00000
     43      -9.7761      1.00000
     44      -9.7322      1.00000
     45      -8.7082      1.00000
     46      -8.3268      1.00000
     47      -8.2805      1.00000
     48      -7.6092      1.00000
     49      -6.0594      1.00000
     50      -5.6756      1.00000
     51      -5.6093      1.00000
     52      -5.4572      1.00000
     53      -3.1771      1.00000
     54      -3.1469      1.00000
     55      -3.1086      1.00000
     56      -2.8102      1.00000
     57      -2.6714      1.00000
     58      -2.6383      1.00000
     59      -2.4762      1.00000
     60      -2.4225      1.00000
[...]
    162       9.1892      0.00000
    163       9.2508      0.00000
    164       9.2889      0.00000
    165       9.3650      0.00000
    166       9.4152      0.00000
    167       9.4341      0.00000
    168       9.4971      0.00000
    169       9.5564      0.00000
    170       9.6202      0.00000
    171       9.6688      0.00000
    172       9.7319      0.00000
    173       9.7690      0.00000
    174       9.8299      0.00000
    175       9.8755      0.00000
    176       9.9265      0.00000

[...]

 soft charge-density along one line, spin component           2
         0         1         2         3         4         5         6         7         8         9
 total charge-density along one line

------------------------ aborting loop because EDIFF is reached ----------------------------------------

         DFTD3 V3.0 Rev 1
 Edisp (eV)  -13.66196

 E6    (eV) :    -8.4178
 E8    (eV) :    -5.2441
 % E8        : 38.38

  FORCE on cell =-STRESS in cart. coord.  units (eV):
  Direction    XX          YY          ZZ          XY          YZ          ZX
  Alpha Z   302.76446   302.76446   302.76446
  Ewald   -2947.21606 -2974.13336 -2925.44008    36.53329    30.34551     4.70353
  Hartree   725.74142   718.56754   748.74909    29.59472     5.88153     4.51724
  E(xc)    -947.66361  -947.75301  -947.72570     0.05241     0.07636    -0.00049
  Local   -1484.90478 -1455.01362 -1534.87084   -68.70682   -32.59873    -9.17403
  n-local  1481.18937  1481.35116  1482.30507    -0.09729     1.04473    -0.77336
  augment  -356.72872  -357.12070  -357.29137    -0.15792     0.06674    -0.03090
  Kinetic  3239.71097  3245.95500  3247.27309     4.33642    -3.79825     1.62887
  Fock        0.00000     0.00000     0.00000     0.00000     0.00000     0.00000
  vdW       -14.44485   -14.41886   -14.44064    -0.01461    -0.00341     0.01407
  Total      -1.55178     0.19862     1.32308     1.54020     1.01448     0.88494
  in kB      -2.77296     0.35492     2.36428     2.75226     1.81283     1.58134

 VOLUME and BASIS-vectors are now :
  energy-cutoff  :      520.00
  volume of cell :      896.60
      direct lattice vectors                 reciprocal lattice vectors
     9.642707344  0.000000000  0.000000000     0.103705315  0.000000000  0.000000000
     0.000000000  9.642707344  0.000000000     0.000000000  0.103705315  0.000000000
     0.000000000  0.000000000  9.642707344     0.000000000  0.000000000  0.103705315

  length of vectors
     9.642707344  9.642707344  9.642707344     0.103705315  0.103705315  0.103705315

 FORCES acting on ions
    electron-ion (+dipol)            ewald-force                    non-local-force                 convergence-correction
   -.819E+01 -.620E+00 -.427E+01   0.756E+01 -.424E+00 0.323E+01   0.624E+00 0.104E+01 0.104E+01   0.202E-03 0.166E-04 -.201E-03
   -.104E+02 0.158E+02 0.185E+02   0.101E+02 -.154E+02 -.175E+02   0.282E+00 -.410E+00 -.996E+00   0.467E-04 0.547E-04 -.597E-04
   0.225E+01 0.371E+01 -.607E+01   -.386E+00 -.321E+01 0.472E+01   -.186E+01 -.489E+00 0.135E+01   0.118E-03 -.392E-04 0.763E-05
   -.812E+00 -.374E+00 0.312E+01   0.176E+01 0.101E+01 -.410E+01   -.948E+00 -.632E+00 0.979E+00   0.150E-03 -.661E-04 0.885E-04
   0.281E+01 -.149E+02 -.820E+01   -.310E+01 0.139E+02 0.748E+01   0.292E+00 0.101E+01 0.721E+00   0.107E-03 -.212E-04 -.273E-04
   -.499E+01 0.181E+01 0.261E+01   0.585E+01 -.259E+01 -.186E+01   -.872E+00 0.781E+00 -.739E+00   -.200E-04 0.272E-04 0.220E-04
   0.784E+01 -.105E+01 -.580E+01   -.689E+01 -.602E-03 0.662E+01   -.961E+00 0.105E+01 -.814E+00   -.785E-04 -.399E-04 0.133E-03
   0.382E+01 -.282E+01 -.837E+01   -.315E+01 0.354E+01 0.857E+01   -.678E+00 -.716E+00 -.201E+00   -.592E-04 0.555E-04 0.585E-05
   -.130E+01 -.103E+02 -.307E+01   0.230E+01 0.996E+01 0.390E+01   -.100E+01 0.383E+00 -.831E+00   0.484E-04 0.610E-04 0.547E-04
   0.257E+01 0.279E+01 0.852E+01   -.357E+01 -.130E+01 -.722E+01   0.100E+01 -.149E+01 -.131E+01   -.597E-04 0.150E-04 -.364E-04
   -.402E+01 -.758E+00 -.379E+01   0.501E+01 0.820E+00 0.471E+01   -.995E+00 -.603E-01 -.930E+00   -.808E-04 -.120E-03 -.733E-04
   -.117E+02 -.186E+01 0.110E+02   0.105E+02 0.258E+01 -.995E+01   0.119E+01 -.714E+00 -.100E+01   0.693E-04 0.791E-04 0.601E-04
   -.466E+01 0.646E+01 -.197E+01   0.523E+01 -.512E+01 0.138E+01   -.564E+00 -.135E+01 0.584E+00   0.287E-04 -.446E-04 -.110E-03
   0.181E+02 -.146E+02 0.212E-01   -.161E+02 0.123E+02 0.192E+01   -.201E+01 0.228E+01 -.194E+01   0.110E-03 -.856E-04 -.219E-04
   -.339E+01 0.192E+01 0.513E+01   0.216E+01 -.928E+00 -.447E+01   0.123E+01 -.997E+00 -.659E+00   0.101E-03 0.235E-04 -.453E-04
   0.480E+01 -.135E+01 0.334E+01   -.381E+01 0.258E+01 -.430E+01   -.982E+00 -.123E+01 0.959E+00   0.533E-04 -.106E-03 -.806E-04
   0.474E+00 0.109E+01 -.101E+02   -.100E+01 -.308E+01 0.851E+01   0.522E+00 0.198E+01 0.154E+01   0.990E-05 -.516E-04 0.138E-04
   -.678E+01 0.327E+01 0.865E+01   0.568E+01 -.242E+01 -.740E+01   0.110E+01 -.852E+00 -.125E+01   -.151E-03 -.161E-03 0.112E-03
   0.155E+01 0.289E+01 0.262E+00   -.232E+01 -.386E+01 -.142E+01   0.775E+00 0.971E+00 0.116E+01   0.478E-04 0.193E-04 0.366E-04
   0.735E+01 0.786E+01 -.293E+01   -.653E+01 -.742E+01 0.199E+01   -.825E+00 -.436E+00 0.938E+00   -.953E-04 0.684E-04 0.645E-04
   0.279E+01 -.410E+01 0.151E+01   -.437E+01 0.485E+01 -.494E+00   0.158E+01 -.750E+00 -.102E+01   -.138E-03 -.282E-04 -.467E-04
   0.807E+01 -.141E+02 -.952E+01   -.864E+01 0.127E+02 0.779E+01   0.568E+00 0.136E+01 0.172E+01   -.116E-03 0.644E-05 -.342E-04
   0.969E+01 0.957E+01 -.104E+02   -.940E+01 -.828E+01 0.879E+01   -.286E+00 -.129E+01 0.162E+01   -.165E-03 0.681E-04 -.775E-04
   0.100E+02 -.409E+01 0.800E+01   -.972E+01 0.293E+01 -.685E+01   -.283E+00 0.116E+01 -.116E+01   -.519E-04 0.354E-04 -.551E-04
   0.729E+01 0.818E+01 0.829E+01   -.759E+01 -.833E+01 -.847E+01   0.297E+00 0.154E+00 0.171E+00   -.252E-03 -.405E-04 -.187E-04
   0.991E+01 -.274E+01 -.463E+01   -.104E+02 0.358E+01 0.531E+01   0.463E+00 -.841E+00 -.678E+00   -.272E-03 0.175E-03 0.406E-04
   -.769E+01 0.715E+01 -.137E+02   0.796E+01 -.769E+01 0.144E+02   -.253E+00 0.527E+00 -.717E+00   0.216E-04 0.430E-04 0.368E-03
   -.134E+02 -.731E+01 0.378E+01   0.135E+02 0.767E+01 -.342E+01   -.292E-01 -.352E+00 -.360E+00   0.197E-03 0.480E-05 -.549E-04
   -.483E+02 0.385E+02 -.282E+02   0.508E+02 -.420E+02 0.312E+02   -.255E+01 0.353E+01 -.297E+01   0.113E-04 0.143E-03 -.172E-03
   -.597E+02 -.365E+02 0.325E+02   0.640E+02 0.391E+02 -.349E+02   -.431E+01 -.263E+01 0.241E+01   0.836E-04 0.605E-04 -.124E-03
   0.471E+02 0.142E+02 0.508E+02   -.511E+02 -.156E+02 -.539E+02   0.407E+01 0.148E+01 0.313E+01   0.138E-03 0.771E-04 0.881E-04
   0.463E+01 -.674E+02 -.548E+02   -.607E+01 0.712E+02 0.583E+02   0.145E+01 -.379E+01 -.352E+01   0.500E-03 -.222E-03 -.491E-04
   0.416E+02 -.459E+02 -.282E+02   -.450E+02 0.496E+02 0.305E+02   0.347E+01 -.366E+01 -.230E+01   0.499E-03 -.305E-03 -.177E-03
   0.193E+02 0.676E+02 0.382E+02   -.211E+02 -.714E+02 -.410E+02   0.181E+01 0.382E+01 0.279E+01   0.122E-03 0.843E-04 0.303E-03
   -.575E+02 -.221E+02 0.418E+02   0.604E+02 0.240E+02 -.452E+02   -.290E+01 -.190E+01 0.344E+01   -.976E-04 0.100E-03 0.457E-04
   -.586E+02 0.553E+02 -.350E+02   0.624E+02 -.588E+02 0.366E+02   -.371E+01 0.343E+01 -.163E+01   0.426E-04 -.119E-03 0.579E-03
   -.522E+02 -.358E+02 0.175E+02   0.563E+02 0.384E+02 -.195E+02   -.411E+01 -.267E+01 0.203E+01   -.342E-03 -.194E-03 0.207E-03
   -.312E+02 0.342E+02 -.506E+02   0.338E+02 -.367E+02 0.538E+02   -.268E+01 0.248E+01 -.323E+01   -.266E-04 0.908E-04 0.951E-04
   0.563E+02 -.627E+02 -.238E+02   -.599E+02 0.671E+02 0.249E+02   0.369E+01 -.440E+01 -.117E+01   0.741E-04 0.368E-04 0.525E-04
   0.389E+02 0.461E+02 0.240E+02   -.414E+02 -.502E+02 -.265E+02   0.259E+01 0.413E+01 0.259E+01   -.210E-05 0.238E-03 -.219E-04
   -.111E+02 -.447E+02 0.583E+02   0.129E+02 0.480E+02 -.620E+02   -.176E+01 -.335E+01 0.375E+01   -.208E-03 -.105E-04 0.126E-03
   -.553E+02 0.422E+02 -.156E+02   0.597E+02 -.446E+02 0.176E+02   -.444E+01 0.248E+01 -.209E+01   -.432E-03 0.281E-03 -.182E-03
   0.567E+02 -.234E+02 -.470E+02   -.598E+02 0.256E+02 0.505E+02   0.311E+01 -.217E+01 -.349E+01   0.302E-04 -.405E-04 -.230E-03
   0.470E+02 0.442E+02 0.483E+02   -.503E+02 -.469E+02 -.512E+02   0.331E+01 0.273E+01 0.291E+01   -.186E-03 -.869E-04 -.175E-03
   -.490E+01 -.939E+01 -.127E+02   0.506E+01 0.946E+01 0.131E+02   -.162E+00 -.706E-01 -.418E+00   -.239E-04 0.308E-04 -.157E-03
   -.251E+01 0.283E+01 0.677E+01   0.254E+01 -.299E+01 -.689E+01   -.289E-01 0.152E+00 0.124E+00   0.140E-03 -.991E-04 -.207E-03
   -.200E+02 0.201E+01 -.347E+01   0.204E+02 -.214E+01 0.354E+01   -.392E+00 0.131E+00 -.652E-01   -.614E-04 0.116E-04 0.742E-04
   0.164E+02 -.531E+01 -.141E+02   -.166E+02 0.531E+01 0.146E+02   0.192E+00 -.412E-02 -.555E+00   -.223E-03 -.649E-04 -.347E-03
   0.123E+02 -.245E+02 0.103E+01   -.125E+02 0.249E+02 -.104E+01   0.250E+00 -.346E+00 0.120E-01   0.109E-03 -.823E-04 -.283E-04
   -.212E+02 0.421E+02 -.527E+01   0.215E+02 -.427E+02 0.498E+01   -.268E+00 0.666E+00 0.294E+00   0.127E-03 0.369E-03 -.269E-03
   0.336E+02 -.769E+01 0.423E+02   -.342E+02 0.795E+01 -.429E+02   0.542E+00 -.250E+00 0.562E+00   -.154E-03 -.147E-03 0.172E-03
   0.318E+02 0.497E+01 -.329E+02   -.322E+02 -.497E+01 0.336E+02   0.364E+00 0.373E-03 -.728E+00   -.126E-03 -.618E-04 0.936E-04
   0.507E+01 0.132E+00 -.645E-01   0.711E-14 -.693E-13 0.213E-13   -.509E+01 -.122E+00 0.607E-01   -.232E-03 0.392E-04 -.241E-03

 POSITION                                       TOTAL-FORCE (eV/Angst)
      9.53623      2.84771      2.79755        -0.000050      0.000421      0.000451
      9.01804      5.31704      6.77567        -0.000131     -0.000288     -0.000019
      0.63746      1.92044      8.43200         0.000309      0.000195      0.000580
      0.15477      7.04404      2.64877        -0.000033      0.000186     -0.000164
      9.35646      8.04850      7.93054         0.000095     -0.000049     -0.000166
      2.04422      7.69454      0.11798         0.000007     -0.000097     -0.000150
      6.54258      3.11650      0.31735        -0.000297     -0.000056      0.000067
      6.35327      6.93174      9.45714        -0.000200      0.000165     -0.000104
      1.87344      9.60133      1.92171        -0.000044     -0.000011     -0.000136
      2.85116      0.17516      6.69891        -0.000042     -0.000079     -0.000014
      6.99080      9.40667      6.85356         0.000093     -0.000016     -0.000029
      7.94624      0.40118      1.46180         0.000129      0.000152     -0.000069
      2.01349      6.51910      4.54348         0.000003     -0.000173     -0.000147
      1.91140      3.10592      5.22060        -0.000035      0.000049      0.000109
      7.72013      6.91283      4.95103         0.000132     -0.000058     -0.000077
      7.06900      1.58830      4.53403         0.000180      0.000087      0.000077
      2.99258      4.37999      8.18888        -0.000001     -0.000056      0.000135
      3.21715      5.24127      1.71804        -0.000063     -0.000022     -0.000013
      7.47407      4.69738      2.88222        -0.000401      0.000162     -0.000338
      6.36962      4.96568      7.66691        -0.000135     -0.000021      0.000079
      4.76370      2.10226      6.82941         0.000128      0.000002     -0.000086
      4.44637      8.18185      3.15834        -0.000070      0.000076     -0.000078
      5.01529      1.98019      2.72178         0.000056     -0.000409      0.000369
      5.10870      7.62260      6.46678         0.000045      0.000016     -0.000292
      4.83793      4.82125      4.79567        -0.000384     -0.000019     -0.000310
      4.84738      0.10678      0.01214        -0.000084     -0.000278      0.000247
      9.58673      4.88800      0.01334         0.000695     -0.000337      0.000245
      0.10501      0.05390      4.89449         0.000361     -0.000167     -0.000782
      1.17240      8.30275      5.95708        -0.000333      0.000366     -0.000279
      1.35830      1.25161      3.79383        -0.000394     -0.000177      0.000398
      8.41341      8.75904      3.63222         0.000291      0.000297      0.000523
      8.73079      1.22917      6.22433         0.000324     -0.000377     -0.000337
      8.33645      6.09420      1.10092         0.000354     -0.000264     -0.000447
      8.42602      3.67027      8.45745         0.000117      0.000346      0.000369
      1.09312      6.02791      8.35423        -0.000503     -0.000360      0.000326
      1.25529      3.74225      1.05435        -0.000487      0.000167     -0.000185
      6.19630      1.19892      8.54370        -0.000361     -0.000205      0.000188
      5.96733      8.66833      1.36568        -0.000402      0.000476     -0.000469
      3.57589      1.35083      0.97395         0.000370     -0.000188     -0.000255
      3.87138      8.40897      8.42272         0.000367      0.000448      0.000311
      5.83526      6.21966      3.66005        -0.000306     -0.000329      0.000511
      6.23269      3.64005      5.73889        -0.000278      0.000416     -0.000145
      3.66051      5.80087      6.16339         0.000359     -0.000331     -0.000310
      3.61022      3.72251      3.58446         0.000365      0.000251      0.000467
      7.29860      7.10209      7.22070        -0.000002     -0.000010     -0.000094
      7.28814      2.46115      2.40292        -0.000072      0.000111      0.000102
      2.40734      7.35270      2.38502        -0.000091      0.000012     -0.000108
      2.55655      2.36008      7.24329         0.000119     -0.000034      0.000024
      0.23899      9.52924      0.08257         0.000093     -0.000058      0.000076
      9.56135      5.09353      4.47287        -0.000063      0.000152      0.000013
      5.06728      0.07966      5.13430         0.000051      0.000022      0.000179
      4.95260      4.90219      9.57343         0.000218     -0.000107     -0.000245
    total drift:                               -0.010954      0.010082     -0.003991

  FREE ENERGIE OF THE ION-ELECTRON SYSTEM (eV)
  free  energy   TOTEN  =      -272.02366106 eV

  energy  without entropy=     -272.02366106  energy(sigma->0) =     -272.02366106

 d Force = 0.7979397E-06[ 0.254E-06, 0.134E-05]  d Energy = 0.1058375E-05-0.260E-06
 d Force = 0.2376870E-01[ 0.238E-01, 0.238E-01]  d Ewald  = 0.2376851E-01 0.184E-06

 stress matrix after NEB project (eV)
     -1.55178      1.54020      0.88494
      1.54020      0.19862      1.01448
      0.88494      1.01448      1.32308
  FORCES: max atom, RMS     0.000877    0.000444
  FORCE total and by dimension    0.003202    0.000782
  Stress total and by dimension    3.544990    1.551778
 Conjugate gradient step on ions:
 trial-energy change:   -0.000001  1 .order   -0.000001   -0.000001   -0.000000
  (g-gl).g = 0.105E-05      g.g   = 0.102E-05  gl.gl    = 0.163E-05
 g(Force)  = 0.102E-05   g(Stress)= 0.000E+00 ortho     =-0.312E-07
 gamma     =   0.64428
 trial     =   1.34736
 opt step  =   1.66141  (harmonic =   1.66141) maximal distance =0.00010122
 next E    =  -272.023661   (d E  =  -0.00000)

 reached required accuracy - stopping structural energy minimisation