 vasp.6.4.1 05Apr23 (build Jun 07 2023 15:38:11) complex

 executed on             LinuxIFC date 2023.10.19  05:17:37

 INCAR:
   GGA = PE
   PREC = Accu
   EDIFF = 1.e-6
   EDIFFG = -1.e-3
   ENCUT = 520.
   NELM = 100
   NELMDL = -10
   LASPH = .TRUE.
   LREAL = Auto
   LMAXMIX = 4
   ISPIN = 2
   LDIAG = .TRUE.
   LPLANE = .TRUE.
   IVDW = 12
   SIGMA = 0.03
   ISMEAR = 0
   NSW = 1000    number of steps for IOM
   IBRION = 2    ionic relax: 0-MD 1-quasi-New 2-CG
   ISIF = 2    ionic relaxation + stress tensor calcn.
   LCHARG = .FALSE.
   LWAVE = .FALSE.
   ALGO = F
   KPAR = 1
   NPAR = 4
   POTIM = 0.2

 POTCAR:    PAW_PBE Li_sv_GW 25Mar2010
 POTCAR:    PAW_PBE P_GW 19Mar2012
 POTCAR:    PAW_PBE S_GW 19Mar2012
 POTCAR:    PAW_PBE Cl_GW 19Mar2012
|           W    W    AA    RRRRR   N    N  II  N    N   GGGG   !!!           |
|           W    W   A  A   R    R  NN   N  II  NN   N  G    G  !!!           |
|           W    W  A    A  R    R  N N  N  II  N N  N  G       !!!           |
|           W WW W  AAAAAA  RRRRR   N  N N  II  N  N N  G  GGG   !            |
|           WW  WW  A    A  R   R   N   NN  II  N   NN  G    G                |
|           W    W  A    A  R    R  N    N  II  N    N   GGGG   !!!           |
|     You use a magnetic or noncollinear calculation, but did not specify     |
|     the initial magnetic moment with the MAGMOM tag. Note that a            |
|     default of 1 will be used for all atoms. This ferromagnetic setup       |
|     may break the symmetry of the crystal, in particular it may rule        |
|     out finding an antiferromagnetic solution. Thence, we recommend         |
|     setting the initial magnetic moment manually or verifying carefully     |
|     that this magnetic setup is desired.                                    |

   TITEL  = PAW_PBE Li_sv_GW 25Mar2010
   POMASS =    7.010; ZVAL   =    3.000    mass and valenz
   ENMAX  =  433.699; ENMIN  =  325.274 eV

   TITEL  = PAW_PBE P_GW 19Mar2012
   POMASS =   30.974; ZVAL   =    5.000    mass and valenz
   ENMAX  =  255.040; ENMIN  =  191.280 eV

[...]

   TITEL  = PAW_PBE Cl_GW 19Mar2012
   POMASS =   35.453; ZVAL   =    7.000    mass and valenz
   ENMAX  =  262.472; ENMIN  =  196.854 eV

 Optimization of the real space projectors (new method)

 maximal supplied QI-value         = 25.13
 optimisation between [QCUT,QGAM] = [ 11.56, 23.12] = [ 37.43,149.72] Ry
 Optimized for a Real-space Cutoff    1.28 Angstroem

   l    n(q)    QCUT    max X(q) W(low)/X(q) W(high)/X(q)  e(spline)
   0      9    11.561    87.733    0.11E-03    0.32E-04    0.56E-06
   0      9    11.561    82.800    0.11E-03    0.35E-04    0.56E-06
   0      9    11.561     2.509    0.22E-03    0.42E-04    0.79E-06
   1      8    11.561    12.580    0.94E-04    0.26E-03    0.21E-06
   1      8    11.561     1.319    0.33E-04    0.15E-03    0.19E-06
   2      8    11.561     1.993    0.36E-04    0.89E-04    0.26E-06
 Optimization of the real space projectors (new method)

[...]

   l    n(q)    QCUT    max X(q) W(low)/X(q) W(high)/X(q)  e(spline)
   0     10    11.508     7.541    0.34E-04    0.13E-04    0.69E-07
   0     10    11.508     1.809    0.49E-04    0.27E-04    0.14E-06
   1     10    11.508     4.107    0.27E-05    0.41E-05    0.14E-06
   1     10    11.508     2.196    0.26E-05    0.25E-05    0.22E-06
   2      9    11.508     4.265    0.18E-03    0.11E-03    0.81E-06
   2      9    11.508     1.925    0.97E-04    0.76E-04    0.47E-06
 Optimization of the real space projectors (new method)

 maximal supplied QI-value         = 19.84
 optimisation between [QCUT,QGAM] = [ 11.51, 23.22] = [ 37.09,150.92] Ry
 Optimized for a Real-space Cutoff    1.21 Angstroem

   l    n(q)    QCUT    max X(q) W(low)/X(q) W(high)/X(q)  e(spline)
   0      8    11.508     6.761    0.57E-04    0.57E-04    0.35E-07
   0      8    11.508     1.642    0.14E-03    0.14E-03    0.91E-07
   1      8    11.508     3.519    0.20E-04    0.72E-04    0.47E-07
   1      8    11.508     2.150    0.27E-04    0.11E-03    0.89E-07
   2      7    11.508     2.976    0.19E-03    0.33E-03    0.16E-06
   2      7    11.508     1.494    0.14E-03    0.29E-03    0.14E-06
  PAW_PBE Li_sv_GW 25Mar2010            :
  PAW_PBE P_GW 19Mar2012                :
  PAW_PBE S_GW 19Mar2012                :
  PAW_PBE Cl_GW 19Mar2012               :

 POSCAR: Li24 P4 S20 Cl4
  positions in direct lattice
  velocities in cartesian coordinates
 exchange correlation table for  LEXCH =        8
   RHO(1)=    0.500       N(1)  =     2000
   RHO(2)=  100.500       N(2)  =     4000

 VTST: version 4.1, (05/19/21)

 CHAIN: initializing optimizer

 OPT: Using VASP Conjugate-Gradient optimizer
 CHAIN: Read ICHAIN            0

 POSCAR: Li24 P4 S20 Cl4
  positions in direct lattice
  velocities in cartesian coordinates

 ion  position               nearest neighbor table
   1  0.973  0.156  0.223-
   2  0.975  0.668  0.704-
   3  0.018  0.185  0.794-
   4  0.021  0.700  0.272-
   5  0.212  0.198  0.988-
   6  0.187  0.847  0.038-
   7  0.792  0.213  0.020-
   8  0.839  0.825  0.960-
   9  0.338  0.960  0.328-
  10  0.309  0.045  0.672-
  11  0.724  0.984  0.692-
  12  0.679  0.007  0.296-
  13  0.202  0.707  0.478-
  14  0.167  0.332  0.535-
  15  0.785  0.711  0.510-
  16  0.663  0.212  0.478-
  17  0.289  0.490  0.829-
  18  0.277  0.510  0.215-
  19  0.812  0.457  0.318-
  20  0.680  0.547  0.847-
  21  0.476  0.294  0.793-
  22  0.479  0.690  0.161-
  23  0.531  0.316  0.183-
  24  0.521  0.795  0.688-
  25  0.497  0.500  0.502-  42 2.05  41 2.05  44 2.05  43 2.06
  26  0.504  0.997  0.992-  40 2.04  38 2.05  37 2.05  39 2.06
  27  0.988  0.499  0.005-  34 2.04  33 2.05  36 2.06  35 2.06
  28  0.006  0.002  0.499-  29 2.05  30 2.05  32 2.06  31 2.06
  29  0.113  0.881  0.636-  28 2.05
  30  0.149  0.118  0.392-  28 2.05
  31  0.888  0.887  0.364-  28 2.06
  32  0.881  0.142  0.599-  28 2.06
  33  0.850  0.613  0.117-  27 2.05
  34  0.880  0.386  0.862-  27 2.04
  35  0.114  0.639  0.904-  27 2.06
  36  0.098  0.370  0.134-  27 2.06
  37  0.625  0.123  0.869-  26 2.05
  38  0.633  0.869  0.101-  26 2.05
  39  0.389  0.111  0.131-  26 2.06
  40  0.372  0.886  0.869-  26 2.04
  41  0.612  0.617  0.367-  25 2.05
  42  0.632  0.399  0.631-  25 2.05
  43  0.369  0.617  0.626-  25 2.06
  44  0.381  0.363  0.388-  25 2.05
  45  0.752  0.755  0.743-
  46  0.745  0.236  0.252-
  47  0.257  0.746  0.248-
  48  0.243  0.262  0.759-
  49  0.001  0.030  1.000-
  50  0.999  0.543  0.483-
  51  0.520  0.996  0.511-
  52  0.478  0.486  0.001-

  LATTYP: Found a simple cubic cell.
 ALAT       =     9.6468745816

  Lattice vectors:

 A1 = (   9.6468745816,   0.0000000000,   0.0000000000)
 A2 = (   0.0000000000,   9.6468745816,   0.0000000000)
 A3 = (   0.0000000000,   0.0000000000,   9.6468745816)

Analysis of symmetry for initial positions (statically):
 Subroutine PRICEL returns:
 Original cell was already a primitive cell.

 Routine SETGRP: Setting up the symmetry group for a
 simple cubic supercell.

 Subroutine GETGRP returns: Found  1 space group operations
 (whereof  1 operations were pure point group operations)
 out of a pool of 48 trial point group operations.

The static configuration has the point symmetry C_1 .

Analysis of symmetry for dynamics (positions and initial velocities):
 Subroutine PRICEL returns:
 Original cell was already a primitive cell.

[...]

The dynamic configuration has the point symmetry C_1 .

Analysis of structural, dynamic, and magnetic symmetry:
 Subroutine PRICEL returns:
 Original cell was already a primitive cell.

 Routine SETGRP: Setting up the symmetry group for a
 simple cubic supercell.

 Subroutine GETGRP returns: Found  1 space group operations
 (whereof  1 operations were pure point group operations)
 out of a pool of 48 trial point group operations.

The overall configuration has the point symmetry C_1 .

 Subroutine INISYM returns: Found  1 space group operations
 (whereof  1 operations are pure point group operations),
 and found     1 'primitive' translations

                                     Primitive cell

  volume of cell :     897.7593

  direct lattice vectors                    reciprocal lattice vectors
     9.646874582  0.000000000  0.000000000     0.103660516  0.000000000  0.000000000
     0.000000000  9.646874582  0.000000000     0.000000000  0.103660516  0.000000000
     0.000000000  0.000000000  9.646874582     0.000000000  0.000000000  0.103660516

  length of vectors
     9.646874582  9.646874582  9.646874582     0.103660516  0.103660516  0.103660516

  position of ions in fractional coordinates (direct lattice)
     0.973027049  0.155962533  0.223035581
     0.975161854  0.668122746  0.704487643
     0.018066838  0.184665257  0.794010904
     0.021497854  0.700113211  0.272121080
     0.211605593  0.198341814  0.988328905
     0.186589013  0.847209092  0.037795187
     0.791998085  0.212788479  0.019514473
     0.838531889  0.824760915  0.960475610
     0.337534572  0.960199185  0.328201882
     0.308588193  0.045190185  0.672104644
     0.723712296  0.983602159  0.691599935
     0.678803918  0.007212651  0.296348737
     0.202023804  0.706712214  0.478399158
     0.167408670  0.332243249  0.534878723
     0.784620589  0.711025770  0.510415165
     0.663126294  0.211586646  0.478455698
     0.288605930  0.490059462  0.828631391
     0.276852876  0.510376900  0.214897654
     0.812367653  0.456827803  0.317529891
     0.679900355  0.546514951  0.846646123
     0.475669887  0.294450522  0.792801489
     0.479376459  0.690042646  0.161036054
     0.530568499  0.315609911  0.182686173
     0.520974483  0.794955432  0.688149259
     0.496784169  0.500171885  0.502129570
     0.504097204  0.997051939  0.991910211
     0.988421182  0.498744845  0.004775544
     0.006214333  0.002293838  0.498964463
     0.112928023  0.880782475  0.636205250
     0.149439216  0.117648587  0.391991854
     0.887911780  0.886854971  0.363735326
     0.880724019  0.142377471  0.599042082
     0.849882334  0.613447481  0.117491085
     0.879756531  0.386094667  0.861910588
     0.113979569  0.639404840  0.904455713
     0.098480009  0.369825959  0.134321875
     0.624536216  0.122904191  0.869391071
     0.633139512  0.868921729  0.101108301
     0.389481902  0.111295478  0.130797313
     0.371957016  0.886214878  0.868758712
     0.611858826  0.616996831  0.366612114
     0.631680651  0.398988598  0.631385835
     0.368996457  0.617254680  0.626315087
     0.380690916  0.363059432  0.388165532
     0.751850858  0.754546107  0.743408471
     0.745266717  0.235729202  0.252042727
     0.256624424  0.746393858  0.248018479
     0.243091249  0.262169308  0.758542009
     0.000731390  0.030228872  0.999757719
     0.999043971  0.542563586  0.482920751
     0.520344185  0.995943057  0.511250970
     0.477643248  0.485624403  0.001413790

  ion indices of the primitive-cell ions
   primitive index   ion index
                 1           1
                 2           2
                 3           3
                 4           4
                 5           5
                 6           6
                 7           7
                 8           8
[...]
     17     -42.2814      1.00000
     18     -42.2789      1.00000
     19     -42.2776      1.00000
     20     -42.2730      1.00000
     21     -42.2531      1.00000
     22     -42.2298      1.00000
     23     -42.1978      1.00000
     24     -42.1863      1.00000
     25     -13.0020      1.00000
     26     -12.9711      1.00000
     27     -12.9451      1.00000
     28     -12.9118      1.00000
     29     -12.6207      1.00000
     30     -12.5956      1.00000
     31     -12.5560      1.00000
     32     -12.5454      1.00000
     33     -10.2344      1.00000
     34     -10.2150      1.00000
     35     -10.1953      1.00000
     36     -10.0801      1.00000
     37     -10.0080      1.00000
     38     -10.0016      1.00000
     39      -9.9574      1.00000
     40      -9.9408      1.00000
     41      -9.9162      1.00000
     42      -9.8805      1.00000
     43      -9.8462      1.00000
     44      -9.8117      1.00000
     45      -8.3030      1.00000
     46      -8.2696      1.00000
     47      -8.2619      1.00000
     48      -8.2345      1.00000
     49      -6.0808      1.00000
     50      -5.6660      1.00000
     51      -5.5982      1.00000
     52      -5.5700      1.00000
     53      -3.1734      1.00000
     54      -3.1634      1.00000
     55      -3.1434      1.00000
     56      -2.8269      1.00000
     57      -2.6568      1.00000
     58      -2.6410      1.00000
     59      -2.5137      1.00000
     60      -2.4283      1.00000
[...]
    162       9.1176      0.00000
    163       9.1521      0.00000
    164       9.2062      0.00000
    165       9.2657      0.00000
    166       9.2864      0.00000
    167       9.3950      0.00000
    168       9.4744      0.00000
    169       9.5288      0.00000
    170       9.5592      0.00000
    171       9.6006      0.00000
    172       9.6806      0.00000
    173       9.7638      0.00000
    174       9.8044      0.00000
    175       9.9058      0.00000
    176       9.9541      0.00000

[...]

 soft charge-density along one line, spin component           2
         0         1         2         3         4         5         6         7         8         9
 total charge-density along one line

------------------------ aborting loop because EDIFF is reached ----------------------------------------

         DFTD3 V3.0 Rev 1
 Edisp (eV)  -13.63819

 E6    (eV) :    -8.4031
 E8    (eV) :    -5.2350
 % E8        : 38.39

  FORCE on cell =-STRESS in cart. coord.  units (eV):
  Direction    XX          YY          ZZ          XY          YZ          ZX
  Alpha Z   302.37227   302.37227   302.37227
  Ewald   -2906.94199 -3018.38189 -2926.77848    13.42421    21.28147    49.43695
  Hartree   751.21398   692.12851   741.81966     5.04568    13.01130    16.81441
  E(xc)    -947.70655  -947.89329  -947.71675     0.04973     0.01780     0.13270
  Local   -1550.94537 -1387.71168 -1522.67265   -17.79971   -33.85789   -62.23253
  n-local  1481.79662  1481.68070  1481.56086     0.12203     0.30007     0.75996
  augment  -356.85799  -357.15508  -356.69785     0.03201    -0.05642     0.08086
  Kinetic  3242.46023  3249.51309  3241.30811    -0.50516     0.35909    -2.72645
  Fock        0.00000     0.00000     0.00000     0.00000     0.00000     0.00000
  vdW       -14.38119   -14.41707   -14.41883     0.01268     0.00761    -0.01106
  Total       1.01000     0.13554    -1.22367     0.38147     1.06304     2.25484
  in kB       1.80248     0.24189    -2.18381     0.68079     1.89715     4.02408

 VOLUME and BASIS-vectors are now :
  energy-cutoff  :      520.00
  volume of cell :      897.76
      direct lattice vectors                 reciprocal lattice vectors
     9.646874582  0.000000000  0.000000000     0.103660516  0.000000000  0.000000000
     0.000000000  9.646874582  0.000000000     0.000000000  0.103660516  0.000000000
     0.000000000  0.000000000  9.646874582     0.000000000  0.000000000  0.103660516

  length of vectors
     9.646874582  9.646874582  9.646874582     0.103660516  0.103660516  0.103660516

 FORCES acting on ions
    electron-ion (+dipol)            ewald-force                    non-local-force                 convergence-correction
   -.579E+01 0.163E+01 -.270E+01   0.504E+01 -.691E+00 0.343E+01   0.754E+00 -.937E+00 -.725E+00   0.250E-04 -.143E-03 0.989E-04
   -.581E+01 0.118E+02 -.766E+00   0.493E+01 -.107E+02 0.184E+01   0.877E+00 -.115E+01 -.107E+01   0.153E-03 0.610E-04 0.743E-04
   0.247E+01 0.505E+01 0.393E+01   -.174E+01 -.391E+01 -.506E+01   -.732E+00 -.115E+01 0.113E+01   0.426E-04 -.109E-03 -.400E-04
   -.137E+01 -.309E+01 0.871E+01   0.195E+01 0.392E+01 -.923E+01   -.580E+00 -.840E+00 0.518E+00   0.102E-03 -.394E-04 -.148E-03
   -.338E+01 0.383E+01 -.495E+01   0.430E+01 -.294E+01 0.412E+01   -.920E+00 -.897E+00 0.822E+00   0.201E-03 -.142E-03 -.238E-03
   0.896E+01 -.794E+01 0.205E+00   -.783E+01 0.644E+01 0.585E+00   -.112E+01 0.151E+01 -.787E+00   0.819E-04 -.835E-04 -.135E-03
   0.125E+01 -.678E+00 0.183E+01   -.258E+01 0.130E+01 -.115E+01   0.134E+01 -.621E+00 -.679E+00   0.743E-05 -.144E-05 -.738E-04
   -.139E+02 -.831E+01 -.154E+01   0.121E+02 0.743E+01 0.540E+00   0.181E+01 0.872E+00 0.993E+00   0.302E-03 -.171E-03 -.714E-04
   -.820E+01 0.231E+01 -.796E+01   0.684E+01 -.297E+01 0.679E+01   0.136E+01 0.660E+00 0.117E+01   0.317E-04 -.539E-04 -.535E-04
   -.688E+01 -.990E+00 0.106E+02   0.574E+01 0.200E+01 -.908E+01   0.114E+01 -.101E+01 -.155E+01   0.864E-05 -.153E-03 0.242E-03
   -.225E+01 -.156E+01 -.143E+01   0.323E+01 0.825E+00 0.233E+01   -.991E+00 0.735E+00 -.906E+00   0.123E-03 -.143E-03 -.146E-03
   0.109E+02 0.924E+01 -.494E+01   -.952E+01 -.837E+01 0.348E+01   -.133E+01 -.866E+00 0.145E+01   -.216E-04 0.159E-04 0.130E-03
   -.742E+01 0.391E-01 -.299E+01   0.861E+01 0.430E+00 0.247E+01   -.120E+01 -.472E+00 0.514E+00   0.335E-04 0.484E-04 0.183E-03
   0.166E+02 -.125E+02 0.167E+01   -.152E+02 0.110E+02 -.721E+00   -.146E+01 0.144E+01 -.950E+00   -.880E-04 0.769E-04 0.618E-04
   0.482E+01 0.330E+01 0.186E+01   -.580E+01 -.257E+01 -.945E+00   0.991E+00 -.740E+00 -.912E+00   -.240E-04 0.468E-04 0.160E-03
   0.648E+01 -.154E+01 -.371E+01   -.530E+01 0.258E+01 0.295E+01   -.119E+01 -.104E+01 0.757E+00   0.393E-04 -.252E-04 0.613E-04
   0.201E+00 -.774E+01 0.198E-01   -.128E+01 0.716E+01 -.731E+00   0.108E+01 0.574E+00 0.711E+00   -.964E-04 0.279E-03 0.419E-05
   -.334E+01 0.476E+01 0.340E+01   0.226E+01 -.394E+01 -.244E+01   0.109E+01 -.816E+00 -.960E+00   -.222E-04 0.300E-03 -.682E-04
   -.697E+01 0.772E+01 -.110E+02   0.571E+01 -.883E+01 0.974E+01   0.125E+01 0.111E+01 0.123E+01   -.318E-04 0.140E-03 0.117E-03
   0.109E+02 -.256E+01 -.109E+02   -.971E+01 0.352E+01 0.947E+01   -.118E+01 -.953E+00 0.140E+01   -.194E-04 0.895E-04 -.569E-04
   -.133E+01 -.211E+01 -.289E+00   0.707E+00 0.917E+00 -.612E+00   0.619E+00 0.120E+01 0.903E+00   -.212E-03 -.232E-05 0.242E-04
   -.226E+01 0.239E+01 0.783E+01   0.191E+01 -.118E+01 -.682E+01   0.354E+00 -.121E+01 -.101E+01   -.137E-03 -.180E-05 -.621E-04
   0.218E+00 -.890E+01 0.503E+01   0.895E+00 0.754E+01 -.419E+01   -.111E+01 0.135E+01 -.835E+00   -.454E-04 -.695E-04 -.153E-03
   0.568E+01 0.137E+01 0.271E+01   -.509E+01 -.264E+01 -.176E+01   -.582E+00 0.127E+01 -.947E+00   -.172E-03 -.140E-03 -.484E-04
   0.487E+01 -.295E+01 0.101E+01   -.465E+01 0.272E+01 -.104E+01   -.219E+00 0.229E+00 0.326E-01   -.998E-04 0.383E-03 0.211E-03
   0.355E+01 0.461E+01 -.557E+00   -.355E+01 -.502E+01 0.534E+00   -.291E-02 0.413E+00 0.272E-01   -.281E-03 0.781E-04 -.163E-03
   -.554E+01 0.182E+01 0.267E+01   0.491E+01 -.176E+01 -.276E+01   0.622E+00 -.535E-01 0.818E-01   0.293E-03 0.348E-03 -.159E-03
   -.204E+01 -.766E+00 -.187E+01   0.242E+01 0.100E+01 0.203E+01   -.374E+00 -.224E+00 -.163E+00   -.212E-03 -.241E-03 0.174E-03
   -.338E+02 0.288E+02 -.636E+02   0.364E+02 -.310E+02 0.677E+02   -.261E+01 0.220E+01 -.414E+01   -.156E-04 -.380E-03 0.230E-03
   -.529E+02 -.428E+02 0.340E+02   0.563E+02 0.457E+02 -.362E+02   -.340E+01 -.287E+01 0.215E+01   -.200E-03 -.195E-03 0.443E-04
   0.326E+02 0.247E+02 0.542E+02   -.354E+02 -.273E+02 -.583E+02   0.282E+01 0.255E+01 0.414E+01   0.275E-03 0.162E-05 0.473E-03
   0.250E+02 -.695E+02 -.223E+02   -.273E+02 0.740E+02 0.243E+02   0.233E+01 -.453E+01 -.203E+01   0.306E-04 -.316E-03 0.732E-04
   0.627E+02 -.336E+02 -.244E+02   -.667E+02 0.358E+02 0.263E+02   0.400E+01 -.223E+01 -.191E+01   0.356E-03 0.208E-03 -.217E-04
   0.309E+02 0.230E+02 0.680E+02   -.334E+02 -.249E+02 -.723E+02   0.252E+01 0.187E+01 0.428E+01   0.209E-03 0.381E-04 -.132E-03
   -.446E+02 -.505E+02 0.291E+02   0.477E+02 0.540E+02 -.315E+02   -.315E+01 -.355E+01 0.235E+01   0.164E-03 0.164E-03 -.189E-03
   -.325E+02 0.348E+02 -.540E+02   0.349E+02 -.377E+02 0.581E+02   -.244E+01 0.295E+01 -.409E+01   -.768E-04 0.480E-03 -.490E-03
   -.357E+02 -.368E+02 0.361E+02   0.387E+02 0.400E+02 -.392E+02   -.303E+01 -.326E+01 0.312E+01   -.419E-03 -.178E-03 0.238E-03
   -.385E+02 0.478E+02 -.296E+02   0.418E+02 -.512E+02 0.319E+02   -.336E+01 0.343E+01 -.229E+01   -.435E-03 0.188E-03 -.183E-03
   0.390E+02 -.321E+02 -.498E+02   -.418E+02 0.347E+02 0.535E+02   0.285E+01 -.261E+01 -.372E+01   -.125E-03 -.786E-04 -.279E-03
   0.468E+02 0.506E+02 0.309E+02   -.502E+02 -.536E+02 -.335E+02   0.345E+01 0.296E+01 0.261E+01   -.272E-03 -.165E-03 -.259E-03
   -.206E+02 -.459E+02 0.446E+02   0.232E+02 0.489E+02 -.483E+02   -.259E+01 -.295E+01 0.374E+01   0.343E-04 0.114E-03 0.403E-03
   -.598E+02 0.241E+02 -.347E+02   0.641E+02 -.259E+02 0.373E+02   -.429E+01 0.179E+01 -.257E+01   -.130E-03 0.274E-03 -.419E-04
   0.412E+02 -.328E+02 -.396E+02   -.443E+02 0.359E+02 0.428E+02   0.309E+01 -.305E+01 -.322E+01   -.182E-04 0.450E-03 0.105E-03
   0.397E+02 0.572E+02 0.230E+02   -.424E+02 -.616E+02 -.248E+02   0.272E+01 0.434E+01 0.180E+01   0.228E-03 0.402E-03 0.300E-03
   0.894E+00 0.623E+01 -.145E+02   -.912E+00 -.639E+01 0.148E+02   0.183E-01 0.148E+00 -.340E+00   0.419E-04 -.886E-04 -.465E-03
   -.367E+01 -.138E+02 -.396E+01   0.389E+01 0.141E+02 0.405E+01   -.224E+00 -.210E+00 -.783E-01   -.419E-04 -.294E-04 0.489E-04
   -.107E+02 -.143E+02 0.482E+01   0.108E+02 0.147E+02 -.497E+01   -.135E+00 -.335E+00 0.154E+00   -.361E-03 -.121E-03 -.782E-04
   0.511E+01 -.519E+01 0.184E+02   -.522E+01 0.533E+01 -.188E+02   0.101E+00 -.134E+00 0.400E+00   0.144E-03 -.327E-03 0.401E-03
   -.103E+01 0.355E+02 0.322E+01   0.866E+00 -.360E+02 -.329E+01   0.164E+00 0.511E+00 0.646E-01   0.296E-03 -.196E-03 -.255E-03
   -.149E+01 0.588E+02 -.181E+02   0.152E+01 -.599E+02 0.183E+02   -.237E-01 0.110E+01 -.228E+00   0.684E-04 0.335E-03 0.151E-03
   0.224E+02 0.516E+01 0.115E+02   -.226E+02 -.529E+01 -.115E+02   0.271E+00 0.129E+00 0.453E-01   0.147E-04 -.509E-03 0.273E-03
   -.105E+02 -.143E+02 0.230E+00   0.106E+02 0.144E+02 -.265E+00   -.181E+00 -.137E+00 0.350E-01   -.298E-03 0.175E-03 -.286E-03
   0.811E+00 0.350E+01 -.494E+00   0.213E-13 -.426E-13 -.157E-13   -.805E+00 -.351E+01 0.500E+00   -.550E-03 0.594E-03 -.111E-04

 POSITION                                       TOTAL-FORCE (eV/Angst)
      9.38669      1.50452      2.15159         0.000116     -0.000199      0.000032
      9.40723      6.44517      6.79609        -0.000075     -0.000611      0.000064
      0.17431      1.78138      7.65971         0.000095     -0.000355     -0.000171
      0.20735      6.75388      2.62513        -0.000004     -0.000246     -0.000048
      2.04131      1.91339      9.53428        -0.000068      0.000059     -0.000021
      1.80004      8.17297      0.36457         0.000206      0.000260      0.000067
      7.64034      2.05274      0.18824         0.000167     -0.000086     -0.000019
      8.08926      7.95635      9.26560         0.000293     -0.000129      0.000083
      3.25617      9.26295      3.16612         0.000144     -0.000027      0.000040
      2.97691      0.43589      6.48367        -0.000016     -0.000066     -0.000232
      6.98151      9.48870      6.67183        -0.000044      0.000120      0.000113
      6.54838      0.06953      2.85887         0.000165     -0.000206      0.000017
      1.94882      6.81761      4.61508        -0.000258      0.000210      0.000130
      1.61499      3.20512      5.15990         0.000082      0.000003     -0.000146
      7.56920      6.85923      4.92389         0.000177      0.000172     -0.000080
      6.39697      2.04114      4.61557        -0.000641      0.000027     -0.000141
      2.78415      4.72756      7.99369        -0.000023      0.000088     -0.000008
      2.67082      4.92351      2.07314         0.000148     -0.000196      0.000200
      7.83678      4.40699      3.06321        -0.000151     -0.000018      0.000241
      6.55896      5.27214      8.16757         0.000223     -0.000099      0.000398
      4.58871      2.84057      7.64808         0.000015      0.000232      0.000056
      4.62448      6.65674      1.55349         0.000072      0.000032     -0.000103
      5.11826      3.04465      1.76230        -0.000160     -0.000006     -0.000208
      5.02579      7.66888      6.63850         0.000060      0.000052      0.000016
      4.79241      4.82503      4.84397        -0.000005      0.000382      0.000183
      4.86305      9.61843      9.56881        -0.000144      0.000293     -0.000103
      9.53519      4.81131      0.04612        -0.000053      0.000144      0.000119
      0.05989      0.02214      4.81341        -0.000087     -0.000070     -0.000009
      1.08946      8.49676      6.13756        -0.000697      0.000507     -0.000167
      1.44178      1.13493      3.78149        -0.000077     -0.000524      0.000392
      8.56556      8.55530      3.50874         0.000441      0.000151     -0.000207
      8.49616      1.37366      5.77883         0.000183     -0.000060     -0.000755
      8.19850      5.91780      1.13353        -0.000216     -0.000802     -0.000134
      8.48688      3.72452      8.31465         0.000617      0.000275      0.000329
      1.09967      6.16843      8.72520        -0.000314     -0.000140      0.000674
      0.95001      3.56758      1.29590        -0.000450      0.000276     -0.000026
      6.02490      1.18572      8.38677        -0.000332     -0.000253      0.000182
      6.10792      8.38233      0.97533        -0.000099      0.000413     -0.000652
      3.75719      1.07370      1.26193         0.000324     -0.000406     -0.000331
      3.58813      8.54913      8.38072         0.000258      0.000190      0.000115
      5.90254      5.95219      3.53653        -0.000462     -0.000229      0.000320
      6.09388      3.84903      6.09098        -0.000074      0.000526     -0.000419
      3.55954      5.95463      6.04209         0.000078     -0.000304     -0.000182
      3.67243      3.50227      3.74455         0.000531      0.000060      0.000439
      7.25300      7.27902      7.17164         0.000039      0.000061      0.000173
      7.18950      2.27408      2.43142        -0.000063     -0.000023     -0.000086
      2.47568      7.20041      2.39262         0.000156     -0.000010      0.000169
      2.34504      2.52920      7.31747        -0.000071      0.000271     -0.000256
      0.00707      0.29155      9.64453        -0.000087      0.000243     -0.000028
      9.63767      5.23397      4.65868         0.000036      0.000074     -0.000054
      5.01965      9.60777      4.93195         0.000054      0.000034      0.000023
      4.60777      4.68480      0.01362        -0.000009     -0.000089      0.000012
    total drift:                                0.005583     -0.009721      0.005956

  FREE ENERGIE OF THE ION-ELECTRON SYSTEM (eV)
  free  energy   TOTEN  =      -272.34755681 eV

  energy  without entropy=     -272.34755681  energy(sigma->0) =     -272.34755681

 d Force = 0.8144823E-06[ 0.344E-06, 0.128E-05]  d Energy = 0.1023944E-05-0.209E-06
 d Force = 0.1990029E-01[ 0.199E-01, 0.199E-01]  d Ewald  = 0.1990029E-01 0.309E-10

 stress matrix after NEB project (eV)
      1.01000      0.38147      2.25484
      0.38147      0.13554      1.06304
      2.25484      1.06304     -1.22367
  FORCES: max atom, RMS     0.000878    0.000437
  FORCE total and by dimension    0.003154    0.000802
  Stress total and by dimension    3.905841    2.254839
 Conjugate gradient step on ions:
 trial-energy change:   -0.000001  1 .order   -0.000001   -0.000001   -0.000000
  (g-gl).g = 0.925E-06      g.g   = 0.944E-06  gl.gl    = 0.316E-05
 g(Force)  = 0.944E-06   g(Stress)= 0.000E+00 ortho     = 0.188E-07
 gamma     =   0.29276
 trial     =   1.35290
 opt step  =   1.84817  (harmonic =   1.84817) maximal distance =0.00005165
 next E    =  -272.347557   (d E  =  -0.00000)

 reached required accuracy - stopping structural energy minimisation