 vasp.6.4.1 05Apr23 (build Jun 07 2023 15:38:11) complex

 executed on             LinuxIFC date 2023.10.19  14:53:57

 INCAR:
   GGA = PE
   PREC = Accu
   EDIFF = 1.e-6
   EDIFFG = -1.e-3
   ENCUT = 520.
   NELM = 100
   NELMDL = -10
   LASPH = .TRUE.
   LREAL = Auto
   LMAXMIX = 4
   ISPIN = 2
   LDIAG = .TRUE.
   LPLANE = .TRUE.
   IVDW = 12
   SIGMA = 0.03
   ISMEAR = 0
   NSW = 1000    number of steps for IOM
   IBRION = 2    ionic relax: 0-MD 1-quasi-New 2-CG
   ISIF = 2    ionic relaxation + stress tensor calcn.
   LCHARG = .FALSE.
   LWAVE = .FALSE.
   ALGO = F
   KPAR = 1
   NPAR = 4
   POTIM = 0.2

 POTCAR:    PAW_PBE Li_sv_GW 25Mar2010
 POTCAR:    PAW_PBE P_GW 19Mar2012
 POTCAR:    PAW_PBE S_GW 19Mar2012
 POTCAR:    PAW_PBE Cl_GW 19Mar2012
|           W    W    AA    RRRRR   N    N  II  N    N   GGGG   !!!           |
|           W    W   A  A   R    R  NN   N  II  NN   N  G    G  !!!           |
|           W    W  A    A  R    R  N N  N  II  N N  N  G       !!!           |
|           W WW W  AAAAAA  RRRRR   N  N N  II  N  N N  G  GGG   !            |
|           WW  WW  A    A  R   R   N   NN  II  N   NN  G    G                |
|           W    W  A    A  R    R  N    N  II  N    N   GGGG   !!!           |
|     You use a magnetic or noncollinear calculation, but did not specify     |
|     the initial magnetic moment with the MAGMOM tag. Note that a            |
|     default of 1 will be used for all atoms. This ferromagnetic setup       |
|     may break the symmetry of the crystal, in particular it may rule        |
|     out finding an antiferromagnetic solution. Thence, we recommend         |
|     setting the initial magnetic moment manually or verifying carefully     |
|     that this magnetic setup is desired.                                    |

   TITEL  = PAW_PBE Li_sv_GW 25Mar2010
   POMASS =    7.010; ZVAL   =    3.000    mass and valenz
   ENMAX  =  433.699; ENMIN  =  325.274 eV

   TITEL  = PAW_PBE P_GW 19Mar2012
   POMASS =   30.974; ZVAL   =    5.000    mass and valenz
   ENMAX  =  255.040; ENMIN  =  191.280 eV

[...]

   TITEL  = PAW_PBE Cl_GW 19Mar2012
   POMASS =   35.453; ZVAL   =    7.000    mass and valenz
   ENMAX  =  262.472; ENMIN  =  196.854 eV

 Optimization of the real space projectors (new method)

 maximal supplied QI-value         = 25.13
 optimisation between [QCUT,QGAM] = [ 11.56, 23.12] = [ 37.43,149.72] Ry
 Optimized for a Real-space Cutoff    1.28 Angstroem

   l    n(q)    QCUT    max X(q) W(low)/X(q) W(high)/X(q)  e(spline)
   0      9    11.561    87.733    0.11E-03    0.32E-04    0.56E-06
   0      9    11.561    82.800    0.11E-03    0.35E-04    0.56E-06
   0      9    11.561     2.509    0.22E-03    0.42E-04    0.79E-06
   1      8    11.561    12.580    0.94E-04    0.26E-03    0.21E-06
   1      8    11.561     1.319    0.33E-04    0.15E-03    0.19E-06
   2      8    11.561     1.993    0.36E-04    0.89E-04    0.26E-06
 Optimization of the real space projectors (new method)

[...]

   l    n(q)    QCUT    max X(q) W(low)/X(q) W(high)/X(q)  e(spline)
   0     10    11.508     7.541    0.34E-04    0.13E-04    0.69E-07
   0     10    11.508     1.809    0.49E-04    0.27E-04    0.14E-06
   1     10    11.508     4.107    0.27E-05    0.41E-05    0.14E-06
   1     10    11.508     2.196    0.26E-05    0.25E-05    0.22E-06
   2      9    11.508     4.265    0.18E-03    0.11E-03    0.81E-06
   2      9    11.508     1.925    0.97E-04    0.76E-04    0.47E-06
 Optimization of the real space projectors (new method)

 maximal supplied QI-value         = 19.84
 optimisation between [QCUT,QGAM] = [ 11.51, 23.22] = [ 37.09,150.92] Ry
 Optimized for a Real-space Cutoff    1.21 Angstroem

   l    n(q)    QCUT    max X(q) W(low)/X(q) W(high)/X(q)  e(spline)
   0      8    11.508     6.761    0.57E-04    0.57E-04    0.35E-07
   0      8    11.508     1.642    0.14E-03    0.14E-03    0.91E-07
   1      8    11.508     3.519    0.20E-04    0.72E-04    0.47E-07
   1      8    11.508     2.150    0.27E-04    0.11E-03    0.89E-07
   2      7    11.508     2.976    0.19E-03    0.33E-03    0.16E-06
   2      7    11.508     1.494    0.14E-03    0.29E-03    0.14E-06
  PAW_PBE Li_sv_GW 25Mar2010            :
  PAW_PBE P_GW 19Mar2012                :
  PAW_PBE S_GW 19Mar2012                :
  PAW_PBE Cl_GW 19Mar2012               :

 POSCAR: Li24 P4 S20 Cl4
  positions in direct lattice
  velocities in cartesian coordinates
 exchange correlation table for  LEXCH =        8
   RHO(1)=    0.500       N(1)  =     2000
   RHO(2)=  100.500       N(2)  =     4000

 VTST: version 4.1, (05/19/21)

 CHAIN: initializing optimizer

 OPT: Using VASP Conjugate-Gradient optimizer
 CHAIN: Read ICHAIN            0

 POSCAR: Li24 P4 S20 Cl4
  positions in direct lattice
  velocities in cartesian coordinates

 ion  position               nearest neighbor table
   1  0.994  0.207  0.163-
   2  0.963  0.681  0.673-
   3  0.054  0.181  0.820-
   4  0.023  0.707  0.330-
   5  0.494  0.207  0.663-
   6  0.164  0.829  0.037-
   7  0.702  0.286  0.013-
   8  0.815  0.786  0.980-
   9  0.315  0.979  0.285-
  10  0.298  0.018  0.693-
  11  0.815  0.979  0.786-
  12  0.798  0.018  0.194-
  13  0.315  0.786  0.480-
  14  0.202  0.286  0.513-
  15  0.664  0.829  0.537-
  16  0.853  0.329  0.456-
  17  0.202  0.479  0.707-
  18  0.219  0.518  0.300-
  19  0.702  0.479  0.208-
  20  0.719  0.518  0.800-
  21  0.353  0.329  0.956-
  22  0.463  0.681  0.173-
  23  0.554  0.181  0.320-
  24  0.523  0.707  0.830-
  25  0.515  0.503  0.500-  41 2.05  42 2.05  43 2.06  44 2.06
  26  0.502  0.003  0.993-  39 2.05  40 2.05  37 2.06  38 2.06
  27  0.015  0.503  0.000-  35 2.05  36 2.05  33 2.06  34 2.06
  28  0.002  0.003  0.493-  32 2.05  31 2.05  30 2.06  29 2.06
  29  0.119  0.873  0.615-  28 2.06
  30  0.123  0.115  0.359-  28 2.06
  31  0.863  0.882  0.388-  28 2.05
  32  0.900  0.139  0.619-  28 2.05
  33  0.894  0.615  0.135-  27 2.06
  34  0.898  0.373  0.879-  27 2.06
  35  0.117  0.640  0.874-  27 2.05
  36  0.154  0.383  0.106-  27 2.05
  37  0.623  0.115  0.859-  26 2.06
  38  0.618  0.873  0.115-  26 2.06
  39  0.400  0.140  0.119-  26 2.05
  40  0.363  0.883  0.888-  26 2.05
  41  0.617  0.640  0.374-  25 2.05
  42  0.654  0.383  0.606-  25 2.05
  43  0.394  0.615  0.635-  25 2.06
  44  0.399  0.373  0.378-  25 2.06
  45  0.747  0.751  0.752-
  46  0.770  0.251  0.241-
  47  0.248  0.751  0.252-
  48  0.270  0.251  0.741-
  49  0.974  0.999  0.997-
  50  0.043  0.499  0.496-
  51  0.474  0.999  0.497-
  52  0.543  0.499  0.996-

  LATTYP: Found a simple cubic cell.
 ALAT       =     9.6601287619

  Lattice vectors:

 A1 = (   9.6601287619,   0.0000000000,   0.0000000000)
 A2 = (   0.0000000000,   9.6601287619,   0.0000000000)
 A3 = (   0.0000000000,   0.0000000000,   9.6601287619)

Analysis of symmetry for initial positions (statically):
 Subroutine PRICEL returns:
 Original cell was already a primitive cell.

 Routine SETGRP: Setting up the symmetry group for a
 simple cubic supercell.

 Subroutine GETGRP returns: Found  1 space group operations
 (whereof  1 operations were pure point group operations)
 out of a pool of 48 trial point group operations.

The static configuration has the point symmetry C_1 .

Analysis of symmetry for dynamics (positions and initial velocities):
 Subroutine PRICEL returns:
 Original cell was already a primitive cell.

[...]

The dynamic configuration has the point symmetry C_1 .

Analysis of structural, dynamic, and magnetic symmetry:
 Subroutine PRICEL returns:
 Original cell was already a primitive cell.

 Routine SETGRP: Setting up the symmetry group for a
 simple cubic supercell.

 Subroutine GETGRP returns: Found  1 space group operations
 (whereof  1 operations were pure point group operations)
 out of a pool of 48 trial point group operations.

The overall configuration has the point symmetry C_1 .

 Subroutine INISYM returns: Found  1 space group operations
 (whereof  1 operations are pure point group operations),
 and found     1 'primitive' translations

                                     Primitive cell

  volume of cell :     901.4647

  direct lattice vectors                    reciprocal lattice vectors
     9.660128762  0.000000000  0.000000000     0.103518289  0.000000000  0.000000000
     0.000000000  9.660128762  0.000000000     0.000000000  0.103518289  0.000000000
     0.000000000  0.000000000  9.660128762     0.000000000  0.000000000  0.103518289

  length of vectors
     9.660128762  9.660128762  9.660128762     0.103518289  0.103518289  0.103518289

  position of ions in fractional coordinates (direct lattice)
     0.994302888  0.207463070  0.163330806
     0.962823262  0.681378767  0.673079392
     0.054124205  0.181483852  0.820139989
     0.022754441  0.707469255  0.329930076
     0.494425399  0.207463137  0.663444669
     0.164112891  0.828986492  0.037007903
     0.702069677  0.285597381  0.013376330
     0.814542739  0.785611533  0.980047822
     0.315101064  0.979193401  0.285484591
     0.298217024  0.018314452  0.693493879
     0.815288266  0.979141821  0.785785892
     0.798206969  0.018317124  0.193597609
     0.314894701  0.785664793  0.479834019
     0.202486027  0.285508553  0.513114911
     0.664207196  0.829251422  0.537166525
     0.852817693  0.328984365  0.456250226
     0.201761210  0.479166653  0.707331854
     0.218722662  0.518303003  0.299610795
     0.702050540  0.479250109  0.207712668
     0.718689719  0.518332795  0.799766404
     0.352761106  0.329207632  0.956063757
     0.462940547  0.681285019  0.173174285
     0.554049147  0.181423944  0.320079384
     0.522588226  0.707455985  0.829810397
     0.515293800  0.503055857  0.500102208
     0.501725512  0.002881841  0.993098656
     0.015202773  0.502956670  0.000065544
     0.001766339  0.002840175  0.493099845
     0.118642070  0.872526729  0.614627175
     0.122968870  0.114693166  0.358506970
     0.862569974  0.882458792  0.387567112
     0.900023165  0.139485818  0.619174009
     0.894072336  0.614852131  0.134673913
     0.898305651  0.372623388  0.878569670
     0.116993259  0.639522331  0.873972566
     0.154375902  0.382515651  0.105598923
     0.623060366  0.114662758  0.858570941
     0.618491582  0.872654666  0.114826679
     0.399976478  0.139649198  0.119042199
     0.362537774  0.882520204  0.887532756
     0.617097893  0.639727084  0.374144113
     0.654411167  0.382601690  0.605694465
     0.393958164  0.614802647  0.634635677
     0.398522270  0.372794609  0.378385392
     0.747459369  0.751417196  0.752391660
     0.769503500  0.251407548  0.240953338
     0.247531145  0.751383076  0.252258593
     0.269529963  0.251422295  0.740803797
     0.974076437  0.999231619  0.997222269
     0.042949849  0.499196884  0.495760392
     0.474082683  0.999315238  0.497146674
     0.542950119  0.499293162  0.995884662

  ion indices of the primitive-cell ions
   primitive index   ion index
                 1           1
                 2           2
                 3           3
                 4           4
                 5           5
                 6           6
                 7           7
                 8           8
[...]
     17     -42.3266      1.00000
     18     -42.3255      1.00000
     19     -42.3249      1.00000
     20     -42.3241      1.00000
     21     -42.2946      1.00000
     22     -42.2943      1.00000
     23     -42.2920      1.00000
     24     -42.2919      1.00000
     25     -13.0158      1.00000
     26     -12.9766      1.00000
     27     -12.9699      1.00000
     28     -12.9697      1.00000
     29     -12.6566      1.00000
     30     -12.6546      1.00000
     31     -12.6528      1.00000
     32     -12.6435      1.00000
     33     -10.2639      1.00000
     34     -10.2289      1.00000
     35     -10.2140      1.00000
     36     -10.0978      1.00000
     37     -10.0351      1.00000
     38     -10.0010      1.00000
     39      -9.9985      1.00000
     40      -9.9722      1.00000
     41      -9.9259      1.00000
     42      -9.9180      1.00000
     43      -9.9034      1.00000
     44      -9.9001      1.00000
     45      -8.3115      1.00000
     46      -8.3081      1.00000
     47      -8.3076      1.00000
     48      -8.3033      1.00000
     49      -6.1044      1.00000
     50      -5.7240      1.00000
     51      -5.6342      1.00000
     52      -5.6092      1.00000
     53      -3.2108      1.00000
     54      -3.1691      1.00000
     55      -3.1601      1.00000
     56      -2.8344      1.00000
     57      -2.7013      1.00000
     58      -2.6636      1.00000
     59      -2.5381      1.00000
     60      -2.4816      1.00000
[...]
    162       9.1235      0.00000
    163       9.2001      0.00000
    164       9.2392      0.00000
    165       9.3171      0.00000
    166       9.3928      0.00000
    167       9.4465      0.00000
    168       9.4979      0.00000
    169       9.5243      0.00000
    170       9.5545      0.00000
    171       9.5747      0.00000
    172       9.6926      0.00000
    173       9.7457      0.00000
    174       9.8337      0.00000
    175       9.8646      0.00000
    176       9.9763      0.00000

[...]

 soft charge-density along one line, spin component           2
         0         1         2         3         4         5         6         7         8         9
 total charge-density along one line

------------------------ aborting loop because EDIFF is reached ----------------------------------------

         DFTD3 V3.0 Rev 1
 Edisp (eV)  -13.58086

 E6    (eV) :    -8.3675
 E8    (eV) :    -5.2134
 % E8        : 38.39

  FORCE on cell =-STRESS in cart. coord.  units (eV):
  Direction    XX          YY          ZZ          XY          YZ          ZX
  Alpha Z   301.12936   301.12936   301.12936
  Ewald   -3025.11182 -2826.45214 -2968.93108     0.07453    -0.27794    -4.84701
  Hartree   692.37183   791.65507   723.12542     0.03337    -0.13361    -0.57691
  E(xc)    -948.03026  -947.63903  -947.92687     0.00018    -0.00055    -0.01014
  Local   -1383.92075 -1663.62654 -1464.32467    -0.09954     0.40277     4.34568
  n-local  1482.12622  1481.03086  1481.18104    -0.00412    -0.00083    -0.12888
  augment  -357.32409  -356.23887  -356.75330     0.00031     0.00015    -0.06032
  Kinetic  3254.01539  3235.64161  3244.98518    -0.01385     0.00964     1.66675
  Fock        0.00000     0.00000     0.00000     0.00000     0.00000     0.00000
  vdW       -14.40721   -14.42806   -14.40776     0.00001    -0.00003    -0.00399
  Total       0.84867     1.07227    -1.92268    -0.00910    -0.00039     0.38517
  in kB       1.50835     1.90575    -3.41719    -0.01618    -0.00069     0.68457

 VOLUME and BASIS-vectors are now :
  energy-cutoff  :      520.00
  volume of cell :      901.46
      direct lattice vectors                 reciprocal lattice vectors
     9.660128762  0.000000000  0.000000000     0.103518289  0.000000000  0.000000000
     0.000000000  9.660128762  0.000000000     0.000000000  0.103518289  0.000000000
     0.000000000  0.000000000  9.660128762     0.000000000  0.000000000  0.103518289

  length of vectors
     9.660128762  9.660128762  9.660128762     0.103518289  0.103518289  0.103518289

 FORCES acting on ions
    electron-ion (+dipol)            ewald-force                    non-local-force                 convergence-correction
   -.109E+02 0.473E+01 0.463E+01   0.103E+02 -.357E+01 -.337E+01   0.616E+00 -.116E+01 -.126E+01   0.351E-04 0.640E-04 0.426E-04
   0.696E+01 0.103E+02 0.122E+02   -.793E+01 -.897E+01 -.107E+02   0.966E+00 -.136E+01 -.149E+01   0.267E-04 0.469E-04 0.110E-04
   -.698E+01 0.102E+02 -.121E+02   0.795E+01 -.889E+01 0.106E+02   -.965E+00 -.135E+01 0.148E+01   0.366E-04 0.690E-04 -.489E-04
   0.109E+02 0.470E+01 -.461E+01   -.103E+02 -.354E+01 0.335E+01   -.617E+00 -.116E+01 0.126E+01   -.238E-04 0.381E-04 -.599E-04
   -.109E+02 0.473E+01 0.464E+01   0.103E+02 -.357E+01 -.338E+01   0.617E+00 -.116E+01 -.126E+01   -.719E-04 0.616E-04 0.208E-04
   0.300E+01 -.116E+02 -.796E+00   -.180E+01 0.105E+02 0.140E+01   -.120E+01 0.108E+01 -.605E+00   0.600E-04 -.498E-04 0.786E-04
   0.644E+01 -.102E+00 0.416E+01   -.542E+01 -.956E+00 -.333E+01   -.103E+01 0.106E+01 -.829E+00   -.570E-04 0.292E-04 0.129E-04
   -.645E+01 -.960E-01 -.417E+01   0.542E+01 -.964E+00 0.334E+01   0.103E+01 0.106E+01 0.829E+00   0.134E-05 -.864E-05 0.552E-04
   -.354E+01 -.193E+01 0.727E+01   0.225E+01 0.131E+01 -.798E+01   0.130E+01 0.612E+00 0.707E+00   0.541E-05 0.173E-04 -.405E-04
   -.105E+01 0.389E+01 -.528E+01   0.842E-01 -.320E+01 0.637E+01   0.971E+00 -.686E+00 -.109E+01   0.544E-05 -.287E-04 -.142E-04
   -.359E+01 -.191E+01 0.731E+01   0.230E+01 0.129E+01 -.801E+01   0.130E+01 0.611E+00 0.707E+00   0.798E-05 -.711E-05 -.790E-05
   -.108E+01 0.390E+01 -.525E+01   0.110E+00 -.320E+01 0.633E+01   0.972E+00 -.687E+00 -.109E+01   -.202E-04 -.222E-04 0.193E-04
   -.644E+01 -.127E+00 -.418E+01   0.541E+01 -.933E+00 0.335E+01   0.103E+01 0.106E+01 0.829E+00   0.454E-04 -.444E-04 0.618E-04
   0.643E+01 -.782E-01 0.417E+01   -.541E+01 -.980E+00 -.334E+01   -.103E+01 0.106E+01 -.830E+00   0.751E-04 0.602E-04 -.697E-04
   0.302E+01 -.116E+02 -.871E+00   -.182E+01 0.105E+02 0.148E+01   -.120E+01 0.109E+01 -.604E+00   -.349E-05 -.386E-04 0.182E-04
   -.300E+01 -.116E+02 0.762E+00   0.180E+01 0.105E+02 -.137E+01   0.120E+01 0.109E+01 0.605E+00   0.375E-04 -.933E-04 -.148E-03
   0.362E+01 -.185E+01 -.728E+01   -.233E+01 0.123E+01 0.799E+01   -.130E+01 0.612E+00 -.710E+00   0.608E-04 0.530E-04 -.294E-04
   0.103E+01 0.397E+01 0.530E+01   -.575E-01 -.328E+01 -.638E+01   -.972E+00 -.686E+00 0.108E+01   0.845E-04 -.517E-04 0.369E-04
   0.359E+01 -.187E+01 -.725E+01   -.229E+01 0.125E+01 0.795E+01   -.130E+01 0.614E+00 -.708E+00   0.184E-04 -.204E-04 0.465E-04
   0.100E+01 0.395E+01 0.532E+01   -.352E-01 -.326E+01 -.640E+01   -.970E+00 -.684E+00 0.108E+01   -.157E-04 0.611E-04 0.112E-03
   -.302E+01 -.116E+02 0.831E+00   0.181E+01 0.105E+02 -.144E+01   0.120E+01 0.109E+01 0.604E+00   -.296E-04 -.440E-04 0.184E-04
   0.696E+01 0.103E+02 0.122E+02   -.793E+01 -.895E+01 -.107E+02   0.969E+00 -.136E+01 -.148E+01   -.876E-04 0.474E-04 0.707E-04
   -.695E+01 0.102E+02 -.121E+02   0.791E+01 -.888E+01 0.107E+02   -.967E+00 -.136E+01 0.148E+01   -.225E-04 0.669E-04 -.780E-04
   0.109E+02 0.470E+01 -.463E+01   -.103E+02 -.354E+01 0.337E+01   -.615E+00 -.116E+01 0.126E+01   -.677E-04 0.590E-04 -.730E-04
   -.798E+01 -.644E+00 -.325E+01   0.840E+01 0.694E+00 0.321E+01   -.411E+00 -.510E-01 0.311E-01   -.169E-03 0.534E-04 0.353E-04
   0.800E+01 -.735E+00 0.326E+01   -.842E+01 0.788E+00 -.323E+01   0.413E+00 -.544E-01 -.311E-01   -.205E-04 0.315E-04 0.102E-05
   -.796E+01 -.712E+00 -.316E+01   0.838E+01 0.760E+00 0.312E+01   -.414E+00 -.490E-01 0.331E-01   0.126E-04 0.446E-05 0.173E-03
   0.795E+01 -.814E+00 0.317E+01   -.837E+01 0.864E+00 -.313E+01   0.412E+00 -.507E-01 -.316E-01   0.113E-04 0.256E-04 -.108E-03
   -.229E+02 0.408E+02 -.521E+02   0.251E+02 -.440E+02 0.558E+02   -.216E+01 0.321E+01 -.374E+01   0.140E-03 -.354E-04 -.111E-03
   -.295E+02 -.320E+02 0.540E+02   0.327E+02 0.350E+02 -.576E+02   -.318E+01 -.296E+01 0.361E+01   0.251E-04 -.379E-05 0.894E-04
   0.550E+02 0.368E+02 0.265E+02   -.586E+02 -.400E+02 -.288E+02   0.352E+01 0.325E+01 0.230E+01   0.100E-03 0.472E-04 -.675E-04
   0.497E+02 -.467E+02 -.276E+02   -.524E+02 0.504E+02 0.301E+02   0.274E+01 -.365E+01 -.243E+01   0.359E-04 -.590E-04 -.280E-04
   0.295E+02 -.319E+02 -.539E+02   -.326E+02 0.349E+02 0.575E+02   0.318E+01 -.296E+01 -.361E+01   0.962E-04 -.787E-05 -.504E-04
   0.229E+02 0.409E+02 0.521E+02   -.251E+02 -.441E+02 -.558E+02   0.216E+01 0.321E+01 0.374E+01   0.236E-04 -.389E-04 0.751E-04
   -.497E+02 -.466E+02 0.277E+02   0.525E+02 0.502E+02 -.301E+02   -.274E+01 -.365E+01 0.243E+01   0.178E-03 -.104E-03 -.349E-04
   -.551E+02 0.369E+02 -.265E+02   0.586E+02 -.402E+02 0.288E+02   -.352E+01 0.325E+01 -.231E+01   -.157E-04 0.937E-04 0.427E-04
   -.295E+02 -.320E+02 0.540E+02   0.327E+02 0.349E+02 -.576E+02   -.319E+01 -.296E+01 0.361E+01   -.112E-03 -.104E-03 0.188E-03
   -.229E+02 0.408E+02 -.520E+02   0.250E+02 -.440E+02 0.558E+02   -.215E+01 0.321E+01 -.375E+01   0.285E-04 0.140E-04 0.255E-04
   0.498E+02 -.467E+02 -.276E+02   -.525E+02 0.504E+02 0.300E+02   0.274E+01 -.365E+01 -.243E+01   -.482E-04 0.342E-04 0.735E-04
   0.551E+02 0.368E+02 0.265E+02   -.586E+02 -.400E+02 -.288E+02   0.353E+01 0.324E+01 0.231E+01   0.995E-04 0.119E-04 -.344E-04
   -.498E+02 -.466E+02 0.276E+02   0.525E+02 0.502E+02 -.300E+02   -.274E+01 -.365E+01 0.242E+01   -.263E-04 -.405E-04 -.302E-04
   -.551E+02 0.369E+02 -.265E+02   0.586E+02 -.402E+02 0.288E+02   -.352E+01 0.324E+01 -.231E+01   -.353E-03 0.146E-03 -.117E-03
   0.296E+02 -.319E+02 -.540E+02   -.328E+02 0.348E+02 0.576E+02   0.319E+01 -.296E+01 -.361E+01   -.862E-04 0.832E-05 -.116E-03
   0.229E+02 0.409E+02 0.520E+02   -.250E+02 -.441E+02 -.558E+02   0.215E+01 0.321E+01 0.375E+01   -.267E-03 -.580E-04 -.100E-03
   0.586E+00 -.174E+01 0.241E+02   -.673E+00 0.181E+01 -.246E+02   0.871E-01 -.654E-01 0.440E+00   -.786E-04 0.843E-04 0.616E-04
   -.640E+00 -.175E+01 -.241E+02   0.728E+00 0.181E+01 0.246E+02   -.873E-01 -.656E-01 -.443E+00   -.325E-04 0.729E-05 0.540E-04
   0.631E+00 -.176E+01 0.242E+02   -.718E+00 0.182E+01 -.246E+02   0.869E-01 -.655E-01 0.442E+00   0.651E-04 -.549E-04 0.119E-04
   -.597E+00 -.174E+01 -.241E+02   0.684E+00 0.181E+01 0.245E+02   -.865E-01 -.656E-01 -.442E+00   -.151E-04 0.974E-04 -.498E-04
   -.389E+02 -.134E+01 -.252E+00   0.395E+02 0.132E+01 0.275E+00   -.588E+00 0.227E-01 -.237E-01   -.436E-03 -.126E-03 0.137E-03
   0.389E+02 -.116E+01 0.567E-01   -.395E+02 0.114E+01 -.813E-01   0.588E+00 0.245E-01 0.246E-01   0.605E-03 -.741E-04 -.898E-04
   -.388E+02 -.143E+01 -.295E+00   0.393E+02 0.141E+01 0.316E+00   -.586E+00 0.204E-01 -.209E-01   -.448E-03 -.147E-03 -.400E-04
   0.388E+02 -.124E+01 0.899E-01   -.394E+02 0.122E+01 -.111E+00   0.586E+00 0.216E-01 0.206E-01   0.310E-03 -.133E-03 0.198E-04
   0.172E-02 0.273E+01 0.117E-01   -.782E-13 -.282E-13 -.117E-12   0.254E-02 -.275E+01 -.245E-01   -.275E-03 -.623E-04 0.461E-04

 POSITION                                       TOTAL-FORCE (eV/Angst)
      9.60514      2.00410      1.57774         0.000266     -0.000052     -0.000292
      9.30095      6.58214      6.50199        -0.000277     -0.000325     -0.000192
      0.52290      1.75308      7.92268         0.000348     -0.000349      0.000116
      0.21976      6.83423      3.18722        -0.000249     -0.000017      0.000286
      4.77624      2.00411      6.40887         0.000184      0.000015     -0.000492
      1.58533      8.00820      0.35755        -0.000075      0.000434      0.000279
      6.78210      2.75890      0.12917         0.000124     -0.000085     -0.000262
      7.86866      7.58910      9.46738         0.000423     -0.000088     -0.000048
      3.04401      9.45913      2.75783         0.000512     -0.000069      0.000070
      2.88084      0.17691      6.69919         0.000152     -0.000020     -0.000237
      7.87586      9.45863      7.59075         0.000359     -0.000030     -0.000224
      7.71081      0.17693      1.87010         0.000161     -0.000028     -0.000396
      3.04192      7.58961      4.63530        -0.000037     -0.000111      0.000185
      1.95600      2.75807      4.95675        -0.000220      0.000062     -0.000007
      6.41628      8.01072      5.18912        -0.000206      0.000241      0.000153
      8.23837      3.17810      4.40737         0.000209      0.000369     -0.000357
      1.94896      4.62881      6.83298        -0.000408     -0.000027      0.000404
      2.11287      5.00687      2.89435        -0.000034      0.000035      0.000329
      6.78174      4.62959      2.00653        -0.000799     -0.000160      0.000008
      6.94263      5.00715      7.72589         0.000011     -0.000032      0.000153
      3.40776      3.18022      9.23567         0.000222      0.000145     -0.000171
      4.47200      6.58126      1.67283        -0.000365     -0.000177     -0.000257
      5.35224      1.75252      3.09204         0.000421     -0.000274      0.000172
      5.04825      6.83410      8.01615        -0.000039     -0.000017      0.000426
      4.97790      4.85959      4.83111        -0.000120      0.000036      0.000070
      4.84673      0.02784      9.59344         0.000066      0.000024     -0.000079
      0.14681      4.85862      0.00069        -0.000039      0.000018      0.000143
      0.01706      0.02745      4.76339        -0.000031      0.000055     -0.000064
      1.14606      8.42871      5.93742        -0.000168      0.000109      0.000003
      1.18793      1.10793      3.46318         0.000071     -0.000114     -0.000008
      8.33246      8.52468      3.74394        -0.000061      0.000112      0.000018
      8.69435      1.34754      5.98129         0.000143      0.000158     -0.000109
      8.63679      5.93950      1.30104        -0.000283     -0.000201      0.000215
      8.67779      3.59957      8.48707         0.000122     -0.000007     -0.000017
      1.13013      6.17797      8.44271        -0.000343      0.000092      0.000291
      1.49136      3.69516      1.02013         0.000001      0.000127      0.000004
      6.01887      1.10764      8.29384        -0.000005     -0.000117     -0.000051
      5.97471      8.42991      1.10924        -0.000060      0.000015     -0.000152
      3.86385      1.34908      1.14997         0.000150      0.000081     -0.000006
      3.50210      8.52525      8.57367        -0.000044      0.000056      0.000016
      5.96121      6.17991      3.61427        -0.000153      0.000011      0.000176
      6.32178      3.69598      5.85109        -0.000090      0.000416     -0.000303
      3.80566      5.93905      6.13074        -0.000065     -0.000001      0.000326
      3.84980      3.60121      3.65524         0.000059     -0.000252     -0.000078
      7.22053      7.25879      7.26820        -0.000034     -0.000021      0.000057
      7.43353      2.42862      2.32761         0.000121      0.000007     -0.000173
      2.39114      7.25846      2.43687        -0.000104      0.000042      0.000152
      2.60372      2.42877      7.15625         0.000107     -0.000031     -0.000078
      9.40976      9.65272      9.63327         0.000150      0.000015     -0.000040
      0.41486      4.82232      4.78912        -0.000174     -0.000021      0.000036
      4.57974      9.65352      4.80249         0.000203     -0.000012     -0.000012
      5.24492      4.82325      9.62037        -0.000104     -0.000035      0.000017
    total drift:                                0.003989     -0.022691     -0.012752

  FREE ENERGIE OF THE ION-ELECTRON SYSTEM (eV)
  free  energy   TOTEN  =      -272.54298163 eV

  energy  without entropy=     -272.54298163  energy(sigma->0) =     -272.54298163

 d Force = 0.4640697E-06[ 0.317E-06, 0.611E-06]  d Energy = 0.8847236E-06-0.421E-06
 d Force =-0.1989611E-03[-0.199E-03,-0.198E-03]  d Ewald  =-0.1989611E-03-0.200E-10

 stress matrix after NEB project (eV)
      0.84867     -0.00910      0.38517
     -0.00910      1.07227     -0.00039
      0.38517     -0.00039     -1.92268
  FORCES: max atom, RMS     0.000815    0.000345
  FORCE total and by dimension    0.002486    0.000799
  Stress total and by dimension    2.421486    1.922682
 Conjugate gradient step on ions:
 trial-energy change:   -0.000001  1 .order   -0.000000   -0.000001   -0.000000
  (g-gl).g = 0.500E-06      g.g   = 0.449E-06  gl.gl    = 0.879E-06
 g(Force)  = 0.449E-06   g(Stress)= 0.000E+00 ortho     =-0.513E-07
 gamma     =   0.56867
 trial     =   1.45705
 opt step  =   3.02452  (harmonic =   3.02452) maximal distance =0.00008605
 next E    =  -272.542981   (d E  =  -0.00000)

 reached required accuracy - stopping structural energy minimisation