 vasp.6.4.1 05Apr23 (build Jun 07 2023 15:38:11) complex

 executed on             LinuxIFC date 2023.10.05  10:14:40

 INCAR:
   GGA = PE
   PREC = Accu
   EDIFF = 1.e-5
   EDIFFG = -1.e-2
   ENCUT = 520.
   NELM = 100
   NELMDL = -10
   LASPH = .TRUE.
   LREAL = Auto
   LMAXMIX = 4
   ISPIN = 2
   LDIAG = .TRUE.
   LPLANE = .TRUE.
   IVDW = 12
   SIGMA = 0.03
   ISMEAR = 0
   NSW = 1000    number of steps for IOM
   IBRION = 1    ionic relax: 0-MD 1-quasi-New 2-CG
   ISIF = 2    ionic relaxation + stress tensor calcn.
   LCHARG = .FALSE.
   LWAVE = .FALSE.
   ALGO = V
   KPAR = 1
   NPAR = 4

 POTCAR:    PAW_PBE Li_sv_GW 25Mar2010
 POTCAR:    PAW_PBE P_GW 19Mar2012
 POTCAR:    PAW_PBE S_GW 19Mar2012
 POTCAR:    PAW_PBE Cl_GW 19Mar2012
|           W    W    AA    RRRRR   N    N  II  N    N   GGGG   !!!           |
|           W    W   A  A   R    R  NN   N  II  NN   N  G    G  !!!           |
|           W    W  A    A  R    R  N N  N  II  N N  N  G       !!!           |
|           W WW W  AAAAAA  RRRRR   N  N N  II  N  N N  G  GGG   !            |
|           WW  WW  A    A  R   R   N   NN  II  N   NN  G    G                |
|           W    W  A    A  R    R  N    N  II  N    N   GGGG   !!!           |
|     You use a magnetic or noncollinear calculation, but did not specify     |
|     the initial magnetic moment with the MAGMOM tag. Note that a            |
|     default of 1 will be used for all atoms. This ferromagnetic setup       |
|     may break the symmetry of the crystal, in particular it may rule        |
|     out finding an antiferromagnetic solution. Thence, we recommend         |
|     setting the initial magnetic moment manually or verifying carefully     |
|     that this magnetic setup is desired.                                    |

   TITEL  = PAW_PBE Li_sv_GW 25Mar2010
   POMASS =    7.010; ZVAL   =    3.000    mass and valenz
   ENMAX  =  433.699; ENMIN  =  325.274 eV

   TITEL  = PAW_PBE P_GW 19Mar2012
   POMASS =   30.974; ZVAL   =    5.000    mass and valenz
   ENMAX  =  255.040; ENMIN  =  191.280 eV

[...]

   TITEL  = PAW_PBE Cl_GW 19Mar2012
   POMASS =   35.453; ZVAL   =    7.000    mass and valenz
   ENMAX  =  262.472; ENMIN  =  196.854 eV

 Optimization of the real space projectors (new method)

 maximal supplied QI-value         = 25.13
 optimisation between [QCUT,QGAM] = [ 11.56, 23.12] = [ 37.43,149.72] Ry
 Optimized for a Real-space Cutoff    1.28 Angstroem

   l    n(q)    QCUT    max X(q) W(low)/X(q) W(high)/X(q)  e(spline)
   0      9    11.561    87.733    0.11E-03    0.32E-04    0.56E-06
   0      9    11.561    82.800    0.11E-03    0.35E-04    0.56E-06
   0      9    11.561     2.509    0.22E-03    0.42E-04    0.79E-06
   1      8    11.561    12.580    0.94E-04    0.26E-03    0.21E-06
   1      8    11.561     1.319    0.33E-04    0.15E-03    0.19E-06
   2      8    11.561     1.993    0.36E-04    0.89E-04    0.26E-06
 Optimization of the real space projectors (new method)

[...]

   l    n(q)    QCUT    max X(q) W(low)/X(q) W(high)/X(q)  e(spline)
   0     10    11.508     7.541    0.34E-04    0.13E-04    0.69E-07
   0     10    11.508     1.809    0.49E-04    0.27E-04    0.14E-06
   1     10    11.508     4.107    0.27E-05    0.41E-05    0.14E-06
   1     10    11.508     2.196    0.26E-05    0.25E-05    0.22E-06
   2      9    11.508     4.265    0.18E-03    0.11E-03    0.81E-06
   2      9    11.508     1.925    0.97E-04    0.76E-04    0.47E-06
 Optimization of the real space projectors (new method)

 maximal supplied QI-value         = 19.84
 optimisation between [QCUT,QGAM] = [ 11.51, 23.22] = [ 37.09,150.92] Ry
 Optimized for a Real-space Cutoff    1.21 Angstroem

   l    n(q)    QCUT    max X(q) W(low)/X(q) W(high)/X(q)  e(spline)
   0      8    11.508     6.761    0.57E-04    0.57E-04    0.35E-07
   0      8    11.508     1.642    0.14E-03    0.14E-03    0.91E-07
   1      8    11.508     3.519    0.20E-04    0.72E-04    0.47E-07
   1      8    11.508     2.150    0.27E-04    0.11E-03    0.89E-07
   2      7    11.508     2.976    0.19E-03    0.33E-03    0.16E-06
   2      7    11.508     1.494    0.14E-03    0.29E-03    0.14E-06
  PAW_PBE Li_sv_GW 25Mar2010            :
  PAW_PBE P_GW 19Mar2012                :
  PAW_PBE S_GW 19Mar2012                :
  PAW_PBE Cl_GW 19Mar2012               :

 POSCAR: Li24 P4 S20 Cl4
  positions in direct lattice
 exchange correlation table for  LEXCH =        8
   RHO(1)=    0.500       N(1)  =     2000
   RHO(2)=  100.500       N(2)  =     4000

 VTST: version 4.1, (05/19/21)

 CHAIN: initializing optimizer

 OPT: Using VASP QUASI-newton optimizer
 CHAIN: Read ICHAIN            0

 POSCAR: Li24 P4 S20 Cl4
  positions in direct lattice

 ion  position               nearest neighbor table
   1  0.977  0.251  0.251-
   2  0.977  0.749  0.749-
   3  0.023  0.250  0.750-
   4  0.023  0.751  0.249-
   5  0.251  0.251  0.977-
   6  0.249  0.751  0.023-
   7  0.750  0.250  0.023-
   8  0.749  0.749  0.977-
   9  0.249  0.977  0.249-
  10  0.250  0.023  0.750-
  11  0.751  0.976  0.751-
  12  0.750  0.023  0.250-
  13  0.250  0.751  0.477-
  14  0.250  0.250  0.523-
  15  0.750  0.750  0.523-
  16  0.749  0.249  0.477-
  17  0.250  0.477  0.750-
  18  0.250  0.523  0.250-
  19  0.750  0.477  0.250-
  20  0.750  0.523  0.750-
  21  0.477  0.249  0.749-
  22  0.477  0.751  0.250-
  23  0.523  0.250  0.250-
  24  0.523  0.750  0.750-
  25  0.500  0.500  0.500-  44 2.05  42 2.05  43 2.05  41 2.05
  26  0.500  0.000  0.000-  40 2.05  38 2.05  37 2.05  39 2.05
  27  0.000  0.500  0.000-  34 2.05  36 2.05  35 2.05  33 2.05
  28  0.000  0.000  0.500-  31 2.05  29 2.05  32 2.05  30 2.05
  29  0.118  0.882  0.619-  28 2.05
  30  0.118  0.118  0.382-  28 2.05
  31  0.882  0.882  0.382-  28 2.05
  32  0.882  0.118  0.618-  28 2.05
  33  0.882  0.618  0.118-  27 2.05
  34  0.882  0.382  0.882-  27 2.05
  35  0.118  0.618  0.882-  27 2.05
  36  0.118  0.382  0.118-  27 2.05
  37  0.618  0.118  0.882-  26 2.05
  38  0.619  0.882  0.118-  26 2.05
  39  0.382  0.118  0.118-  26 2.05
  40  0.382  0.882  0.882-  26 2.05
  41  0.618  0.618  0.382-  25 2.05
  42  0.618  0.382  0.618-  25 2.05
  43  0.382  0.618  0.618-  25 2.05
  44  0.382  0.382  0.382-  25 2.05
  45  0.750  0.750  0.750-
  46  0.750  0.250  0.250-
  47  0.250  0.750  0.250-
  48  0.250  0.250  0.750-
  49  1.000  1.000  1.000-
  50  0.999  0.500  0.500-
  51  0.500  0.000  0.500-
  52  0.500  0.500  0.999-

  LATTYP: Found a simple cubic cell.
 ALAT       =    10.0227252407

  Lattice vectors:

 A1 = (  10.0227252407,   0.0000000000,   0.0000000000)
 A2 = (   0.0000000000,  10.0227252407,   0.0000000000)
 A3 = (   0.0000000000,   0.0000000000,  10.0227252407)

Analysis of symmetry for initial positions (statically):
 Subroutine PRICEL returns:
 Original cell was already a primitive cell.

 Routine SETGRP: Setting up the symmetry group for a
 simple cubic supercell.

 Subroutine GETGRP returns: Found  2 space group operations
 (whereof  2 operations were pure point group operations)
 out of a pool of 48 trial point group operations.

The static configuration has the point symmetry C_1h.

Analysis of symmetry for dynamics (positions and initial velocities):
 Subroutine PRICEL returns:
 Original cell was already a primitive cell.

[...]

The dynamic configuration has the point symmetry C_1h.

Analysis of structural, dynamic, and magnetic symmetry:
 Subroutine PRICEL returns:
 Original cell was already a primitive cell.

 Routine SETGRP: Setting up the symmetry group for a
 simple cubic supercell.

 Subroutine GETGRP returns: Found  2 space group operations
 (whereof  2 operations were pure point group operations)
 out of a pool of 48 trial point group operations.

The overall configuration has the point symmetry C_1h.

 Subroutine INISYM returns: Found  2 space group operations
 (whereof  2 operations are pure point group operations),
 and found     1 'primitive' translations

                                     Primitive cell

  volume of cell :    1006.8331

  direct lattice vectors                    reciprocal lattice vectors
    10.022725241  0.000000000  0.000000000     0.099773263  0.000000000  0.000000000
     0.000000000 10.022725241  0.000000000     0.000000000  0.099773263  0.000000000
     0.000000000  0.000000000 10.022725241     0.000000000  0.000000000  0.099773263

  length of vectors
    10.022725241 10.022725241 10.022725241     0.099773263  0.099773263  0.099773263

  position of ions in fractional coordinates (direct lattice)
     0.976644164  0.250748371  0.250920505
     0.976691020  0.748583884  0.748995592
     0.023169693  0.249713255  0.750345944
     0.023051965  0.750711904  0.249483747
     0.250920505  0.250748371  0.976644164
     0.249483747  0.750711904  0.023051965
     0.750345944  0.249713255  0.023169693
     0.748995592  0.748583884  0.976691020
     0.249116958  0.976922488  0.249116958
     0.250083445  0.023111719  0.750260653
     0.751066831  0.976495747  0.751066831
     0.750260653  0.023111719  0.250083445
     0.250092088  0.750521553  0.476635438
     0.249878288  0.250175191  0.523131822
     0.749744870  0.750034650  0.523110443
     0.749306899  0.249354142  0.476708303
     0.250323997  0.476786100  0.750189061
     0.249910802  0.523401804  0.249910802
     0.750189061  0.476786100  0.250323997
     0.749930341  0.522903022  0.749930341
     0.476708303  0.249354142  0.749306899
     0.476635438  0.750521553  0.250092088
     0.523131822  0.250175191  0.249878288
     0.523110443  0.750034650  0.749744870
     0.499928882  0.500107379  0.499928882
     0.500396625  0.000114299  0.000177211
     0.000268609  0.499959260  0.000268609
     0.000177211  0.000114299  0.500396625
     0.118174556  0.881894417  0.618512609
     0.118181739  0.118190526  0.382030185
     0.882113070  0.882004658  0.382306889
     0.881825201  0.118236767  0.618294190
     0.882023675  0.618080956  0.118319451
     0.882141080  0.382002148  0.882141080
     0.118319451  0.618080956  0.882023675
     0.118309113  0.381671669  0.118309113
     0.618294190  0.118236767  0.881825201
     0.618512609  0.881894417  0.118174556
     0.382030185  0.118190526  0.118181739
     0.382306889  0.882004658  0.882113070
     0.617954461  0.618277457  0.381694598
     0.618009529  0.381883303  0.618009529
     0.381694598  0.618277457  0.617954461
     0.381854503  0.382088573  0.381854503
     0.749902168  0.749711452  0.749902168
     0.749887245  0.249962074  0.249932915
     0.249848590  0.750169399  0.249848590
     0.249932915  0.249962074  0.749887245
     0.999971235  0.999557276  0.999971235
     0.999251728  0.499975231  0.499934338
     0.499962733  0.000172170  0.499962733
     0.499934338  0.499975231  0.999251728

  ion indices of the primitive-cell ions
   primitive index   ion index
                 1           1
                 2           2
                 3           3
                 4           4
                 5           5
                 6           6
                 7           7
                 8           8
                 9           9
                10          10
                11          11
[...]
     13     -43.2902      1.00000
     14     -43.2901      1.00000
     15     -43.2896      1.00000
     16     -43.2893      1.00000
     17     -43.2889      1.00000
     18     -43.2884      1.00000
     19     -43.2884      1.00000
     20     -43.2882      1.00000
     21     -43.2876      1.00000
     22     -43.2873      1.00000
     23     -43.2872      1.00000
     24     -43.2871      1.00000
     25     -14.1202      1.00000
     26     -14.1053      1.00000
     27     -14.1052      1.00000
     28     -14.1051      1.00000
     29     -11.2631      1.00000
     30     -11.2628      1.00000
     31     -11.2626      1.00000
     32     -11.2005      1.00000
     33     -11.1352      1.00000
     34     -11.1352      1.00000
     35     -11.1344      1.00000
     36     -11.1098      1.00000
     37     -11.1093      1.00000
     38     -11.1089      1.00000
     39     -11.1080      1.00000
     40     -11.1078      1.00000
     41     -11.0792      1.00000
     42     -11.0728      1.00000
     43     -11.0726      1.00000
     44     -11.0718      1.00000
     45      -9.6537      1.00000
     46      -9.6528      1.00000
     47      -9.6514      1.00000
     48      -9.6481      1.00000
     49      -7.1105      1.00000
     50      -6.8194      1.00000
     51      -6.8189      1.00000
     52      -6.8189      1.00000
     53      -4.1672      1.00000
     54      -4.1668      1.00000
     55      -4.1667      1.00000
     56      -3.8840      1.00000
     57      -3.7232      1.00000
     58      -3.7226      1.00000
     59      -3.6230      1.00000
     60      -3.6221      1.00000
[...]
    162       8.2031      0.00000
    163       8.2324      0.00000
    164       8.2736      0.00000
    165       8.2832      0.00000
    166       8.3291      0.00000
    167       8.4202      0.00000
    168       8.4465      0.00000
    169       8.5624      0.00000
    170       8.6400      0.00000
    171       8.6473      0.00000
    172       8.7808      0.00000
    173       8.8161      0.00000
    174       8.9427      0.00000
    175       9.4101      0.00000
    176       9.7723      0.00000

[...]

 soft charge-density along one line, spin component           2
         0         1         2         3         4         5         6         7         8         9
 total charge-density along one line

------------------------ aborting loop because EDIFF is reached ----------------------------------------

         DFTD3 V3.0 Rev 1
 Edisp (eV)  -12.09924

 E6    (eV) :    -7.4505
 E8    (eV) :    -4.6487
 % E8        : 38.42

  FORCE on cell =-STRESS in cart. coord.  units (eV):
  Direction    XX          YY          ZZ          XY          YZ          ZX
  Alpha Z   269.61520   269.61520   269.61520
  Ewald   -2759.74424 -2759.88852 -2759.74424     0.97555     0.97555     0.55018
  Hartree   843.86715   843.78860   843.86715     0.57093     0.57093     0.30357
  E(xc)    -946.89894  -946.89910  -946.89894     0.00002     0.00002     0.00031
  Local   -1759.86518 -1759.63080 -1759.86518    -1.55371    -1.55371    -0.85209
  n-local  1481.14810  1481.13960  1481.14998     0.33052    -0.25481     0.02011
  augment  -356.06691  -356.06452  -356.06691    -0.00722    -0.00722    -0.00328
  Kinetic  3240.63431  3240.60805  3240.63625     0.57771    -0.46826     0.02289
  Fock        0.00000     0.00000     0.00000     0.00000     0.00000     0.00000
  vdW       -12.85197   -12.85200   -12.85197    -0.00031    -0.00031    -0.00015
  Total      -0.16057    -0.18348    -0.16057     0.07783     0.07783     0.04154
  in kB      -0.25551    -0.29198    -0.25551     0.12386     0.12386     0.06610

 VOLUME and BASIS-vectors are now :
  energy-cutoff  :      520.00
  volume of cell :     1006.83
      direct lattice vectors                 reciprocal lattice vectors
    10.022725241  0.000000000  0.000000000     0.099773263  0.000000000  0.000000000
     0.000000000 10.022725241  0.000000000     0.000000000  0.099773263  0.000000000
     0.000000000  0.000000000 10.022725241     0.000000000  0.000000000  0.099773263

  length of vectors
    10.022725241 10.022725241 10.022725241     0.099773263  0.099773263  0.099773263

 FORCES acting on ions
    electron-ion (+dipol)            ewald-force                    non-local-force                 convergence-correction
   -.684E+01 -.184E+00 -.154E+00   0.615E+01 0.170E+00 0.143E+00   0.692E+00 0.266E-01 0.257E-01   -.748E-03 -.805E-02 -.102E-01
   -.683E+01 0.322E+00 0.369E+00   0.613E+01 -.301E+00 -.344E+00   0.693E+00 -.374E-01 -.414E-01   0.268E-05 0.118E-01 0.111E-01
   0.670E+01 0.633E-01 -.134E+00   -.601E+01 -.558E-01 0.126E+00   -.687E+00 -.734E-02 0.119E-01   -.793E-04 -.712E-03 -.319E-02
   0.679E+01 -.107E+00 0.926E-01   -.609E+01 0.959E-01 -.824E-01   -.687E+00 0.198E-01 -.171E-01   -.547E-03 -.749E-02 0.428E-02
   -.154E+00 -.184E+00 -.684E+01   0.143E+00 0.170E+00 0.615E+01   0.257E-01 0.266E-01 0.692E+00   -.102E-01 -.805E-02 -.748E-03
   0.926E-01 -.107E+00 0.679E+01   -.824E-01 0.959E-01 -.609E+01   -.171E-01 0.198E-01 -.687E+00   0.428E-02 -.749E-02 -.547E-03
   -.134E+00 0.633E-01 0.670E+01   0.126E+00 -.558E-01 -.601E+01   0.119E-01 -.734E-02 -.687E+00   -.319E-02 -.712E-03 -.793E-04
   0.369E+00 0.322E+00 -.683E+01   -.344E+00 -.301E+00 0.613E+01   -.414E-01 -.374E-01 0.693E+00   0.111E-01 0.118E-01 0.268E-05
   0.209E+00 -.690E+01 0.209E+00   -.193E+00 0.621E+01 -.193E+00   -.285E-01 0.693E+00 -.285E-01   0.938E-02 -.699E-03 0.938E-02
   0.545E-01 0.675E+01 -.489E-01   -.567E-01 -.606E+01 0.483E-01   0.676E-03 -.686E+00 0.599E-02   0.421E-04 -.158E-02 -.529E-02
   -.327E+00 -.670E+01 -.327E+00   0.312E+00 0.601E+01 0.312E+00   0.337E-01 0.689E+00 0.337E-01   -.121E-01 -.108E-02 -.121E-01
   -.489E-01 0.675E+01 0.545E-01   0.483E-01 -.606E+01 -.567E-01   0.599E-02 -.686E+00 0.676E-03   -.529E-02 -.158E-02 0.421E-04
   -.632E-01 -.210E-01 -.674E+01   0.596E-01 0.232E-01 0.604E+01   0.883E-02 0.862E-02 0.688E+00   -.407E-02 -.805E-02 -.108E-02
   0.770E-01 -.124E+00 0.679E+01   -.725E-01 0.114E+00 -.609E+01   0.602E-03 0.962E-02 -.689E+00   -.432E-02 0.295E-03 -.835E-03
   0.117E+00 -.192E+00 0.680E+01   -.114E+00 0.185E+00 -.610E+01   -.435E-02 0.735E-02 -.692E+00   0.300E-03 -.358E-03 -.837E-03
   0.184E+00 0.280E+00 -.683E+01   -.177E+00 -.265E+00 0.614E+01   -.176E-01 -.248E-01 0.692E+00   0.781E-02 0.708E-02 -.124E-02
   0.275E-01 -.677E+01 0.580E-01   -.230E-01 0.608E+01 -.524E-01   0.873E-02 0.688E+00 0.726E-02   -.944E-02 0.206E-03 -.934E-02
   -.678E-01 0.668E+01 -.678E-01   0.635E-01 -.599E+01 0.635E-01   0.337E-02 -.685E+00 0.337E-02   0.299E-03 0.316E-03 0.299E-03
   0.580E-01 -.677E+01 0.275E-01   -.524E-01 0.608E+01 -.230E-01   0.726E-02 0.688E+00 0.873E-02   -.934E-02 0.206E-03 -.944E-02
   -.376E-01 0.689E+01 -.376E-01   0.323E-01 -.619E+01 0.323E-01   0.541E-02 -.694E+00 0.541E-02   -.590E-03 -.118E-02 -.590E-03
   -.683E+01 0.280E+00 0.184E+00   0.614E+01 -.265E+00 -.177E+00   0.692E+00 -.248E-01 -.176E-01   -.124E-02 0.708E-02 0.781E-02
   -.674E+01 -.210E-01 -.632E-01   0.604E+01 0.232E-01 0.596E-01   0.688E+00 0.862E-02 0.883E-02   -.108E-02 -.805E-02 -.407E-02
   0.679E+01 -.124E+00 0.770E-01   -.609E+01 0.114E+00 -.725E-01   -.689E+00 0.962E-02 0.602E-03   -.835E-03 0.295E-03 -.432E-02
   0.680E+01 -.192E+00 0.117E+00   -.610E+01 0.185E+00 -.114E+00   -.692E+00 0.735E-02 -.435E-02   -.837E-03 -.358E-03 0.300E-03
   0.453E-01 -.644E-01 0.453E-01   -.459E-01 0.622E-01 -.459E-01   0.616E-02 -.162E-02 0.616E-02   -.440E-02 0.291E-02 -.440E-02
   -.757E-01 -.398E-01 -.108E+00   0.805E-01 0.383E-01 0.101E+00   -.981E-02 0.202E-03 0.390E-02   0.540E-03 0.331E-03 0.260E-04
   -.720E-01 0.503E-01 -.720E-01   0.701E-01 -.528E-01 0.701E-01   -.651E-03 0.191E-02 -.651E-03   0.782E-03 0.397E-03 0.782E-03
   -.108E+00 -.398E-01 -.757E-01   0.101E+00 0.383E-01 0.805E-01   0.390E-02 0.202E-03 -.981E-02   0.260E-04 0.331E-03 0.540E-03
   -.450E+02 0.450E+02 -.452E+02   0.483E+02 -.483E+02 0.485E+02   -.329E+01 0.329E+01 -.330E+01   0.663E-02 0.426E-02 0.685E-02
   -.451E+02 -.449E+02 0.451E+02   0.484E+02 0.482E+02 -.484E+02   -.330E+01 -.329E+01 0.330E+01   0.695E-02 0.605E-02 0.116E-01
   0.451E+02 0.451E+02 0.449E+02   -.484E+02 -.484E+02 -.482E+02   0.330E+01 0.330E+01 0.329E+01   0.413E-02 0.198E-02 0.769E-02
   0.452E+02 -.451E+02 -.449E+02   -.485E+02 0.484E+02 0.482E+02   0.330E+01 -.329E+01 -.328E+01   0.753E-02 0.429E-02 0.713E-02
   0.450E+02 -.451E+02 -.451E+02   -.483E+02 0.483E+02 0.484E+02   0.329E+01 -.330E+01 -.330E+01   0.779E-02 0.441E-02 0.362E-02
   0.450E+02 0.451E+02 0.450E+02   -.483E+02 -.483E+02 -.483E+02   0.330E+01 0.329E+01 0.330E+01   0.687E-02 -.589E-02 0.687E-02
   -.451E+02 -.451E+02 0.450E+02   0.484E+02 0.483E+02 -.483E+02   -.330E+01 -.330E+01 0.329E+01   0.362E-02 0.441E-02 0.779E-02
   -.449E+02 0.454E+02 -.449E+02   0.482E+02 -.487E+02 0.482E+02   -.329E+01 0.330E+01 -.329E+01   0.668E-02 0.404E-02 0.668E-02
   -.449E+02 -.451E+02 0.452E+02   0.482E+02 0.484E+02 -.485E+02   -.328E+01 -.329E+01 0.330E+01   0.713E-02 0.429E-02 0.753E-02
   -.452E+02 0.450E+02 -.450E+02   0.485E+02 -.483E+02 0.483E+02   -.330E+01 0.329E+01 -.329E+01   0.685E-02 0.426E-02 0.663E-02
   0.451E+02 -.449E+02 -.451E+02   -.484E+02 0.482E+02 0.484E+02   0.330E+01 -.329E+01 -.330E+01   0.116E-01 0.605E-02 0.695E-02
   0.449E+02 0.451E+02 0.451E+02   -.482E+02 -.484E+02 -.484E+02   0.329E+01 0.330E+01 0.330E+01   0.769E-02 0.198E-02 0.413E-02
   -.448E+02 -.450E+02 0.453E+02   0.481E+02 0.483E+02 -.486E+02   -.329E+01 -.329E+01 0.330E+01   -.394E-02 0.222E-02 -.178E-02
   -.450E+02 0.450E+02 -.450E+02   0.483E+02 -.483E+02 0.483E+02   -.330E+01 0.330E+01 -.330E+01   0.323E-02 0.467E-02 0.323E-02
   0.453E+02 -.450E+02 -.448E+02   -.486E+02 0.483E+02 0.481E+02   0.330E+01 -.329E+01 -.329E+01   -.178E-02 0.222E-02 -.394E-02
   0.451E+02 0.449E+02 0.451E+02   -.484E+02 -.482E+02 -.484E+02   0.329E+01 0.329E+01 0.329E+01   -.259E-02 0.680E-02 -.259E-02
   -.284E-01 -.396E+00 -.284E-01   0.318E-01 0.399E+00 0.318E-01   0.185E-03 -.930E-02 0.185E-03   -.241E-02 0.721E-02 -.241E-02
   0.482E-01 0.263E-01 0.271E+00   -.413E-01 -.246E-01 -.262E+00   0.243E-02 0.122E-02 0.602E-02   -.786E-02 -.224E-02 -.137E-01
   -.257E+00 0.344E+00 -.257E+00   0.260E+00 -.337E+00 0.260E+00   -.421E-02 0.926E-02 -.421E-02   0.223E-02 -.147E-01 0.223E-02
   0.271E+00 0.263E-01 0.482E-01   -.262E+00 -.246E-01 -.413E-01   0.602E-02 0.122E-02 0.243E-02   -.137E-01 -.224E-02 -.786E-02
   0.112E+00 -.443E+00 0.112E+00   -.595E-01 0.419E+00 -.595E-01   -.728E-02 0.467E-02 -.728E-02   -.442E-01 0.193E-01 -.442E-01
   -.785E+00 -.115E-02 -.292E-01   0.703E+00 0.698E-02 0.321E-01   0.192E-01 -.372E-03 0.196E-02   0.625E-01 -.525E-02 -.393E-02
   0.376E-01 0.236E+00 0.376E-01   -.305E-01 -.204E+00 -.305E-01   0.164E-03 -.530E-02 0.164E-03   -.670E-02 -.258E-01 -.670E-02
   -.292E-01 -.115E-02 -.785E+00   0.321E-01 0.698E-02 0.703E+00   0.196E-02 -.372E-03 0.192E-01   -.393E-02 -.525E-02 0.625E-01
   -.108E+00 -.561E-01 -.108E+00   -.623E-13 -.497E-13 -.188E-12   0.631E-01 0.337E-01 0.631E-01   0.307E-01 0.146E-01 0.307E-01

 POSITION                                       TOTAL-FORCE (eV/Angst)
      9.78911      2.51348      2.51535         0.002847      0.005031      0.005216
      9.78942      7.50256      7.50673         0.001674     -0.004331     -0.005056
      0.23256      2.50308      7.52087         0.001850     -0.000372      0.000954
      0.23142      7.52458      2.50059         0.001728      0.001396     -0.002125
      2.51535      2.51348      9.78911         0.005216      0.005031      0.002847
      2.50059      7.52458      0.23142        -0.002125      0.001396      0.001728
      7.52087      2.50308      0.23256         0.000954     -0.000372      0.001850
      7.50673      7.50256      9.78942        -0.005056     -0.004331      0.001674
      2.49673      9.79182      2.49673        -0.003048      0.001373     -0.003048
      2.50682      0.23205      7.51999        -0.001274      0.002079      0.000441
      7.52826      9.78743      7.52826         0.005864      0.001145      0.005864
      7.51999      0.23205      2.50682         0.000441      0.002079     -0.001274
      2.50670      7.52252      4.77743         0.001365      0.002826      0.001535
      2.50490      2.50767      5.24351         0.001061     -0.000234      0.001361
      7.51472      7.51755      5.24332        -0.000722     -0.000007      0.001855
      7.51024      2.49922      4.77832        -0.002128     -0.002472      0.002695
      2.50920      4.77870      7.51920         0.003989     -0.000050      0.003652
      2.50504      5.24604      2.50504        -0.000386      0.000223     -0.000386
      7.51920      4.77870      2.50920         0.003652     -0.000050      0.003989
      7.51663      5.24105      7.51663        -0.000244      0.001691     -0.000244
      4.77832      2.49922      7.51024         0.002695     -0.002472     -0.002128
      4.77743      7.52252      2.50670         0.001535      0.002826      0.001365
      5.24351      2.50767      2.50490         0.001361     -0.000234      0.001061
      5.24332      7.51755      7.51472         0.001855     -0.000007     -0.000722
      5.01055      5.01245      5.01055         0.001570     -0.000815      0.001570
      5.01404      0.00064      0.00075        -0.004180     -0.000839     -0.001851
      0.00166      5.01099      0.00166        -0.001482     -0.000037     -0.001482
      0.00075      0.00064      5.01404        -0.001851     -0.000839     -0.004180
      1.18400      8.83957      6.19869        -0.001615     -0.000703     -0.001680
      1.18426      1.18413      3.82939        -0.001816     -0.001689     -0.000796
      8.84005      8.83907      3.83067        -0.002403     -0.001409     -0.002323
      8.83869      1.18467      6.19678        -0.001256     -0.001043     -0.001305
      8.84054      6.19456      1.18570        -0.001606     -0.000956     -0.001702
      8.84043      3.82786      8.84043        -0.002801     -0.001241     -0.002801
      1.18570      6.19456      8.84054        -0.001702     -0.000956     -0.001606
      1.18521      3.82602      1.18521        -0.002445      0.000211     -0.002445
      6.19678      1.18467      8.83869        -0.001305     -0.001043     -0.001256
      6.19869      8.83957      1.18400        -0.001680     -0.000703     -0.001615
      3.82939      1.18413      1.18426        -0.000796     -0.001689     -0.001816
      3.83067      8.83907      8.84005        -0.002323     -0.001409     -0.002403
      6.19346      6.19651      3.82593        -0.000859     -0.000661     -0.000906
      6.19398      3.82790      6.19398        -0.001703      0.001052     -0.001703
      3.82593      6.19651      6.19346        -0.000906     -0.000661     -0.000859
      3.82660      3.82898      3.82660        -0.001969     -0.001561     -0.001969
      7.51630      7.51430      7.51630         0.001421      0.000780      0.001421
      7.51624      2.50537      2.50530         0.001751      0.000784      0.001701
      2.50440      7.51878      2.50440         0.001257      0.000970      0.001257
      2.50530      2.50537      7.51624         0.001701      0.000784      0.001751
     10.02270     10.01834     10.02270         0.001288      0.000169      0.001288
     10.01537      5.01121      5.01092         0.000759      0.000337      0.001081
      5.01117      0.00184      5.01117         0.000762      0.000665      0.000762
      5.01092      5.01121     10.01537         0.001081      0.000337      0.000759
    total drift:                               -0.014447     -0.007720     -0.014447

  FREE ENERGIE OF THE ION-ELECTRON SYSTEM (eV)
  free  energy   TOTEN  =      -268.23222429 eV

  energy  without entropy=     -268.23222429  energy(sigma->0) =     -268.23222429

 d Force =-0.1889170E-03[-0.114E-03,-0.264E-03]  d Energy =-0.1288390E-03-0.601E-04
 d Force =-0.4274225E-02[-0.425E-02,-0.429E-02]  d Ewald  =-0.4274198E-02-0.271E-07

 stress matrix after NEB project (eV)
     -0.16057      0.07783      0.04154
      0.07783     -0.18348      0.07783
      0.04154      0.07783     -0.16057
  FORCES: max atom, RMS     0.008371    0.003641
  FORCE total and by dimension    0.026259    0.005864
  Stress total and by dimension    0.336028    0.183484
 Quasi-Newton relaxation of ions (Broydens 2nd method)
  g(Force)  = 0.333E-04   g(Stress)= 0.000E+00

 retain information from N=  2 steps
 eigenvalues of (default step * inverse Hessian matrix)
  average eigenvalue of G=   5.1741
 eigenvalue spectrum of G is  5.1741  5.1741

 reached required accuracy - stopping structural energy minimisation