 vasp.6.4.1 05Apr23 (build Jun 07 2023 15:38:11) complex

 executed on             LinuxIFC date 2023.10.23  15:06:32

 INCAR:
   GGA = PE
   PREC = Accu
   EDIFF = 1.e-6
   EDIFFG = -1.e-3
   ENCUT = 520.
   NELM = 100
   NELMDL = -10
   LASPH = .TRUE.
   LREAL = Auto
   LMAXMIX = 4
   ISPIN = 2
   LDIAG = .TRUE.
   LPLANE = .TRUE.
   IVDW = 12
   SIGMA = 0.03
   ISMEAR = 0
   NSW = 1000    number of steps for IOM
   IBRION = 2    ionic relax: 0-MD 1-quasi-New 2-CG
   ISIF = 2    ionic relaxation + stress tensor calcn.
   LCHARG = .FALSE.
   LWAVE = .FALSE.
   ALGO = F
   KPAR = 1
   NPAR = 4
   POTIM = 0.2

 POTCAR:    PAW_PBE Li_sv_GW 25Mar2010
 POTCAR:    PAW_PBE P_GW 19Mar2012
 POTCAR:    PAW_PBE S_GW 19Mar2012
 POTCAR:    PAW_PBE Cl_GW 19Mar2012
|           W    W    AA    RRRRR   N    N  II  N    N   GGGG   !!!           |
|           W    W   A  A   R    R  NN   N  II  NN   N  G    G  !!!           |
|           W    W  A    A  R    R  N N  N  II  N N  N  G       !!!           |
|           W WW W  AAAAAA  RRRRR   N  N N  II  N  N N  G  GGG   !            |
|           WW  WW  A    A  R   R   N   NN  II  N   NN  G    G                |
|           W    W  A    A  R    R  N    N  II  N    N   GGGG   !!!           |
|     You use a magnetic or noncollinear calculation, but did not specify     |
|     the initial magnetic moment with the MAGMOM tag. Note that a            |
|     default of 1 will be used for all atoms. This ferromagnetic setup       |
|     may break the symmetry of the crystal, in particular it may rule        |
|     out finding an antiferromagnetic solution. Thence, we recommend         |
|     setting the initial magnetic moment manually or verifying carefully     |
|     that this magnetic setup is desired.                                    |

   TITEL  = PAW_PBE Li_sv_GW 25Mar2010
   POMASS =    7.010; ZVAL   =    3.000    mass and valenz
   ENMAX  =  433.699; ENMIN  =  325.274 eV

   TITEL  = PAW_PBE P_GW 19Mar2012
   POMASS =   30.974; ZVAL   =    5.000    mass and valenz
   ENMAX  =  255.040; ENMIN  =  191.280 eV

[...]

   TITEL  = PAW_PBE Cl_GW 19Mar2012
   POMASS =   35.453; ZVAL   =    7.000    mass and valenz
   ENMAX  =  262.472; ENMIN  =  196.854 eV

 Optimization of the real space projectors (new method)

 maximal supplied QI-value         = 25.13
 optimisation between [QCUT,QGAM] = [ 11.56, 23.12] = [ 37.43,149.72] Ry
 Optimized for a Real-space Cutoff    1.28 Angstroem

   l    n(q)    QCUT    max X(q) W(low)/X(q) W(high)/X(q)  e(spline)
   0      9    11.561    87.733    0.11E-03    0.32E-04    0.56E-06
   0      9    11.561    82.800    0.11E-03    0.35E-04    0.56E-06
   0      9    11.561     2.509    0.22E-03    0.42E-04    0.79E-06
   1      8    11.561    12.580    0.94E-04    0.26E-03    0.21E-06
   1      8    11.561     1.319    0.33E-04    0.15E-03    0.19E-06
   2      8    11.561     1.993    0.36E-04    0.89E-04    0.26E-06
 Optimization of the real space projectors (new method)

[...]

   l    n(q)    QCUT    max X(q) W(low)/X(q) W(high)/X(q)  e(spline)
   0     10    11.508     7.541    0.34E-04    0.13E-04    0.69E-07
   0     10    11.508     1.809    0.49E-04    0.27E-04    0.14E-06
   1     10    11.508     4.107    0.27E-05    0.41E-05    0.14E-06
   1     10    11.508     2.196    0.26E-05    0.25E-05    0.22E-06
   2      9    11.508     4.265    0.18E-03    0.11E-03    0.81E-06
   2      9    11.508     1.925    0.97E-04    0.76E-04    0.47E-06
 Optimization of the real space projectors (new method)

 maximal supplied QI-value         = 19.84
 optimisation between [QCUT,QGAM] = [ 11.51, 23.22] = [ 37.09,150.92] Ry
 Optimized for a Real-space Cutoff    1.21 Angstroem

   l    n(q)    QCUT    max X(q) W(low)/X(q) W(high)/X(q)  e(spline)
   0      8    11.508     6.761    0.57E-04    0.57E-04    0.35E-07
   0      8    11.508     1.642    0.14E-03    0.14E-03    0.91E-07
   1      8    11.508     3.519    0.20E-04    0.72E-04    0.47E-07
   1      8    11.508     2.150    0.27E-04    0.11E-03    0.89E-07
   2      7    11.508     2.976    0.19E-03    0.33E-03    0.16E-06
   2      7    11.508     1.494    0.14E-03    0.29E-03    0.14E-06
  PAW_PBE Li_sv_GW 25Mar2010            :
  PAW_PBE P_GW 19Mar2012                :
  PAW_PBE S_GW 19Mar2012                :
  PAW_PBE Cl_GW 19Mar2012               :

 POSCAR: Li24 P4 S20 Cl4
  positions in direct lattice
  velocities in cartesian coordinates
 exchange correlation table for  LEXCH =        8
   RHO(1)=    0.500       N(1)  =     2000
   RHO(2)=  100.500       N(2)  =     4000

 VTST: version 4.1, (05/19/21)

 CHAIN: initializing optimizer

 OPT: Using VASP Conjugate-Gradient optimizer
 CHAIN: Read ICHAIN            0

 POSCAR: Li24 P4 S20 Cl4
  positions in direct lattice
  velocities in cartesian coordinates

 ion  position               nearest neighbor table
   1  0.958  0.317  0.331-
   2  0.994  0.701  0.696-
   3  0.029  0.276  0.684-
   4  0.073  0.788  0.079-
   5  0.182  0.190  0.974-
   6  0.345  0.649  0.048-
   7  0.796  0.215  0.020-
   8  0.695  0.678  0.967-
   9  0.200  0.989  0.225-
  10  0.322  0.026  0.730-
  11  0.832  0.962  0.826-
  12  0.825  0.021  0.215-
  13  0.275  0.800  0.482-
  14  0.330  0.215  0.526-
  15  0.728  0.822  0.524-
  16  0.666  0.171  0.467-
  17  0.214  0.479  0.701-
  18  0.169  0.548  0.322-
  19  0.714  0.482  0.210-
  20  0.790  0.516  0.670-
  21  0.478  0.326  0.833-
  22  0.486  0.812  0.299-
  23  0.515  0.304  0.189-
  24  0.536  0.804  0.718-
  25  0.500  0.507  0.499-  44 2.05  41 2.05  43 2.05  42 2.06
  26  0.507  0.993  0.007-  38 2.05  40 2.05  37 2.05  39 2.06
  27  0.005  0.496  0.002-  36 2.05  34 2.05  33 2.05  35 2.07
  28  0.005  0.001  0.509-  31 2.03  32 2.06  29 2.06  30 2.06
  29  0.127  0.898  0.650-  28 2.06
  30  0.124  0.141  0.400-  28 2.06
  31  0.917  0.862  0.378-  28 2.03
  32  0.858  0.109  0.620-  28 2.06
  33  0.888  0.626  0.123-  27 2.05
  34  0.887  0.380  0.869-  27 2.05
  35  0.137  0.622  0.891-  27 2.07
  36  0.117  0.375  0.134-  27 2.05
  37  0.621  0.112  0.872-  26 2.05
  38  0.641  0.877  0.123-  26 2.05
  39  0.379  0.118  0.123-  26 2.06
  40  0.383  0.859  0.898-  26 2.05
  41  0.636  0.628  0.390-  25 2.05
  42  0.606  0.364  0.617-  25 2.06
  43  0.385  0.631  0.627-  25 2.05
  44  0.371  0.400  0.369-  25 2.05
  45  0.764  0.743  0.747-
  46  0.743  0.247  0.252-
  47  0.257  0.759  0.247-
  48  0.259  0.253  0.755-
  49  0.995  0.018  0.022-
  50  0.015  0.493  0.533-
  51  0.492  0.977  0.515-
  52  0.532  0.491  0.019-

  LATTYP: Found a simple cubic cell.
 ALAT       =     9.6575578268

  Lattice vectors:

 A1 = (   9.6575578268,   0.0000000000,   0.0000000000)
 A2 = (   0.0000000000,   9.6575578268,   0.0000000000)
 A3 = (   0.0000000000,   0.0000000000,   9.6575578268)

Analysis of symmetry for initial positions (statically):
 Subroutine PRICEL returns:
 Original cell was already a primitive cell.

 Routine SETGRP: Setting up the symmetry group for a
 simple cubic supercell.

 Subroutine GETGRP returns: Found  1 space group operations
 (whereof  1 operations were pure point group operations)
 out of a pool of 48 trial point group operations.

The static configuration has the point symmetry C_1 .

Analysis of symmetry for dynamics (positions and initial velocities):
 Subroutine PRICEL returns:
 Original cell was already a primitive cell.

[...]

The dynamic configuration has the point symmetry C_1 .

Analysis of structural, dynamic, and magnetic symmetry:
 Subroutine PRICEL returns:
 Original cell was already a primitive cell.

 Routine SETGRP: Setting up the symmetry group for a
 simple cubic supercell.

 Subroutine GETGRP returns: Found  1 space group operations
 (whereof  1 operations were pure point group operations)
 out of a pool of 48 trial point group operations.

The overall configuration has the point symmetry C_1 .

 Subroutine INISYM returns: Found  1 space group operations
 (whereof  1 operations are pure point group operations),
 and found     1 'primitive' translations

                                     Primitive cell

  volume of cell :     900.7452

  direct lattice vectors                    reciprocal lattice vectors
     9.657557827  0.000000000  0.000000000     0.103545846  0.000000000  0.000000000
     0.000000000  9.657557827  0.000000000     0.000000000  0.103545846  0.000000000
     0.000000000  0.000000000  9.657557827     0.000000000  0.000000000  0.103545846

  length of vectors
     9.657557827  9.657557827  9.657557827     0.103545846  0.103545846  0.103545846

  position of ions in fractional coordinates (direct lattice)
     0.958351885  0.316861000  0.331037063
     0.994308317  0.701413901  0.696156316
     0.028586707  0.275732997  0.683862753
     0.073167096  0.787555442  0.079104269
     0.181777637  0.190065231  0.974191975
     0.344726634  0.648796606  0.047631681
     0.795902325  0.215109397  0.020253914
     0.694830716  0.678272633  0.967478016
     0.199590203  0.988520942  0.224895892
     0.321956877  0.026146562  0.730399316
     0.831985856  0.961663824  0.825711269
     0.824702836  0.020528215  0.214744996
     0.274913360  0.800223355  0.482005905
     0.329629860  0.215287657  0.525674246
     0.727510060  0.822424140  0.523887119
     0.666062232  0.171086609  0.467353900
     0.213561693  0.479440755  0.701193136
     0.168640767  0.548175200  0.321654765
     0.714266429  0.481857891  0.209614097
     0.789861744  0.515681781  0.669812635
     0.478204094  0.325629683  0.833453421
     0.486326622  0.811950771  0.299226700
     0.514618192  0.303523954  0.189076274
     0.536044845  0.803564558  0.718186148
     0.500229859  0.506667420  0.498753289
     0.507235348  0.993416034  0.006885264
     0.004553248  0.495982958  0.002150347
     0.004895767  0.001171048  0.509173915
     0.127356683  0.897839494  0.649839449
     0.124007148  0.140657689  0.400181936
     0.917430530  0.861989753  0.377868351
     0.858012495  0.108713848  0.619670961
     0.887844155  0.626377497  0.122524496
     0.886884389  0.380455065  0.868582798
     0.137061868  0.622381081  0.891084710
     0.116961302  0.374524108  0.134474445
     0.620972275  0.112017461  0.871915423
     0.641069096  0.876810803  0.123466355
     0.379198948  0.118039045  0.122722387
     0.382859484  0.859388248  0.898405625
     0.635869290  0.628469680  0.389903080
     0.606177169  0.364054123  0.616503053
     0.385009997  0.631098256  0.626755944
     0.370835744  0.400138256  0.368655289
     0.764259149  0.743319639  0.747369637
     0.742723681  0.246713348  0.251510084
     0.256918728  0.758854128  0.246944401
     0.258747480  0.253291936  0.755047401
     0.994621437  0.018147170  0.022211628
     0.015224947  0.492724704  0.532858414
     0.492105505  0.977216676  0.515245756
     0.531712388  0.490817459  0.019283531

  ion indices of the primitive-cell ions
   primitive index   ion index
                 1           1
                 2           2
                 3           3
                 4           4
                 5           5
                 6           6
                 7           7
                 8           8
[...]
      5     -42.4657      1.00000
      6     -42.4545      1.00000
      7     -42.4281      1.00000
      8     -42.4200      1.00000
      9     -42.4031      1.00000
     10     -42.4004      1.00000
     11     -42.3936      1.00000
     12     -42.3870      1.00000
     13     -42.3737      1.00000
     14     -42.3574      1.00000
     15     -42.3523      1.00000
     16     -42.3488      1.00000
     17     -42.3254      1.00000
     18     -42.3044      1.00000
     19     -42.2913      1.00000
     20     -42.2887      1.00000
     21     -42.2824      1.00000
     22     -42.2740      1.00000
     23     -42.2631      1.00000
     24     -42.1952      1.00000
     25     -13.0313      1.00000
     26     -12.9920      1.00000
     27     -12.9682      1.00000
     28     -12.9471      1.00000
     29     -12.6343      1.00000
     30     -12.6168      1.00000
     31     -12.6042      1.00000
     32     -12.4856      1.00000
     33     -10.2650      1.00000
     34     -10.2386      1.00000
     35     -10.2130      1.00000
     36     -10.0694      1.00000
     37     -10.0344      1.00000
     38     -10.0014      1.00000
     39      -9.9863      1.00000
     40      -9.9559      1.00000
     41      -9.9364      1.00000
     42      -9.9205      1.00000
     43      -9.9051      1.00000
     44      -9.8757      1.00000
     45      -8.3494      1.00000
     46      -8.3234      1.00000
     47      -8.3041      1.00000
     48      -8.2460      1.00000
     49      -6.0848      1.00000
     50      -5.6863      1.00000
     51      -5.6280      1.00000
     52      -5.5901      1.00000
     53      -3.2015      1.00000
     54      -3.1702      1.00000
     55      -3.1558      1.00000
     56      -2.7988      1.00000
     57      -2.7178      1.00000
     58      -2.6758      1.00000
     59      -2.5249      1.00000
     60      -2.4703      1.00000
[...]
    162       9.1281      0.00000
    163       9.2078      0.00000
    164       9.2501      0.00000
    165       9.3087      0.00000
    166       9.3615      0.00000
    167       9.4008      0.00000
    168       9.4348      0.00000
    169       9.4614      0.00000
    170       9.5190      0.00000
    171       9.5990      0.00000
    172       9.6564      0.00000
    173       9.7311      0.00000
    174       9.8064      0.00000
    175       9.8534      0.00000
    176       9.8901      0.00000

[...]

 soft charge-density along one line, spin component           2
         0         1         2         3         4         5         6         7         8         9
 total charge-density along one line

------------------------ aborting loop because EDIFF is reached ----------------------------------------

         DFTD3 V3.0 Rev 1
 Edisp (eV)  -13.58910

 E6    (eV) :    -8.3734
 E8    (eV) :    -5.2157
 % E8        : 38.38

  FORCE on cell =-STRESS in cart. coord.  units (eV):
  Direction    XX          YY          ZZ          XY          YZ          ZX
  Alpha Z   301.36992   301.36992   301.36992
  Ewald   -2951.50093 -2873.06428 -3003.30950    70.16552    -3.40173   -25.57437
  Hartree   734.58490   766.51063   701.13090    30.62220    -5.37236   -13.72339
  E(xc)    -947.82207  -947.64463  -947.85259     0.12239    -0.00951    -0.06076
  Local   -1493.48604 -1596.81979 -1409.23977   -97.46122     9.88869    39.10296
  n-local  1481.47624  1481.97370  1481.13158     1.07751     0.29858    -0.05732
  augment  -357.03408  -356.68738  -356.93257    -0.08921     0.08336     0.07166
  Kinetic  3246.56231  3239.87503  3247.11154    -1.23943    -2.37383    -1.92471
  Fock        0.00000     0.00000     0.00000     0.00000     0.00000     0.00000
  vdW       -14.36301   -14.38353   -14.37603    -0.02864    -0.01477     0.00892
  Total      -0.21276     1.12966    -0.96653     3.16912    -0.90156    -2.15700
  in kB      -0.37844     2.00936    -1.71918     5.63700    -1.60363    -3.83670

 VOLUME and BASIS-vectors are now :
  energy-cutoff  :      520.00
  volume of cell :      900.75
      direct lattice vectors                 reciprocal lattice vectors
     9.657557827  0.000000000  0.000000000     0.103545846  0.000000000  0.000000000
     0.000000000  9.657557827  0.000000000     0.000000000  0.103545846  0.000000000
     0.000000000  0.000000000  9.657557827     0.000000000  0.000000000  0.103545846

  length of vectors
     9.657557827  9.657557827  9.657557827     0.103545846  0.103545846  0.103545846

 FORCES acting on ions
    electron-ion (+dipol)            ewald-force                    non-local-force                 convergence-correction
   0.597E+01 -.142E+02 -.838E+01   -.688E+01 0.127E+02 0.701E+01   0.910E+00 0.154E+01 0.137E+01   -.114E-03 0.226E-04 0.615E-04
   -.286E+01 0.749E+00 0.600E+01   0.194E+01 0.694E+00 -.502E+01   0.909E+00 -.145E+01 -.981E+00   -.457E-04 -.397E-04 0.546E-04
   0.597E+01 0.461E+01 -.856E+00   -.526E+01 -.517E+01 0.187E+01   -.709E+00 0.560E+00 -.102E+01   -.106E-03 0.199E-04 0.629E-04
   0.185E+01 -.142E+02 0.296E+01   -.136E+01 0.133E+02 -.212E+01   -.489E+00 0.918E+00 -.833E+00   -.927E-04 -.167E-04 0.186E-04
   0.188E+01 0.373E+01 0.124E+01   -.823E+00 -.272E+01 -.206E+01   -.105E+01 -.101E+01 0.823E+00   -.621E-04 -.521E-04 -.112E-03
   -.672E+01 0.156E+02 0.138E+01   0.613E+01 -.145E+02 -.446E+00   0.584E+00 -.109E+01 -.931E+00   0.132E-03 0.398E-04 -.648E-04
   -.242E+01 -.303E+00 0.480E+01   0.148E+01 0.132E+01 -.407E+01   0.936E+00 -.102E+01 -.725E+00   0.288E-05 -.209E-04 -.150E-03
   0.751E+01 0.335E+01 0.358E+01   -.632E+01 -.256E+01 -.443E+01   -.119E+01 -.792E+00 0.861E+00   -.317E-04 -.253E-04 -.534E-04
   0.293E+01 -.569E+01 0.417E+01   -.147E+01 0.474E+01 -.321E+01   -.147E+01 0.948E+00 -.965E+00   0.350E-04 -.311E-04 0.756E-04
   -.363E+01 -.325E+01 0.104E+00   0.214E+01 0.410E+01 0.871E+00   0.150E+01 -.841E+00 -.975E+00   -.293E-05 -.548E-04 -.277E-04
   -.110E+02 -.857E+00 -.989E+01   0.989E+01 -.212E+00 0.846E+01   0.107E+01 0.107E+01 0.144E+01   -.218E-05 0.261E-04 0.632E-04
   0.249E+01 0.190E+01 -.523E+01   -.327E+01 -.162E+01 0.586E+01   0.788E+00 -.279E+00 -.628E+00   -.353E-04 -.113E-03 -.151E-04
   0.541E+01 0.458E+00 0.422E+01   -.609E+01 -.127E+01 -.476E+01   0.673E+00 0.814E+00 0.547E+00   0.363E-04 0.136E-04 0.351E-04
   -.145E+02 0.111E+02 0.939E+01   0.129E+02 -.955E+01 -.863E+01   0.163E+01 -.150E+01 -.753E+00   -.625E-04 0.200E-04 0.363E-04
   0.463E+01 -.795E+01 0.977E+01   -.306E+01 0.638E+01 -.892E+01   -.157E+01 0.158E+01 -.846E+00   -.637E-04 -.359E-04 -.919E-04
   0.949E+01 0.730E+01 0.423E+01   -.819E+01 -.591E+01 -.490E+01   -.130E+01 -.139E+01 0.669E+00   0.919E-04 0.252E-04 -.557E-05
   -.479E+01 -.210E+01 -.225E+01   0.601E+01 0.129E+01 0.300E+01   -.123E+01 0.807E+00 -.751E+00   0.140E-04 0.355E-04 -.116E-04
   0.149E+02 -.249E+01 -.583E+01   -.132E+02 0.357E+01 0.468E+01   -.175E+01 -.108E+01 0.114E+01   0.344E-05 0.765E-04 0.645E-04
   -.419E+01 -.260E+01 -.711E+01   0.505E+01 0.207E+01 0.789E+01   -.861E+00 0.518E+00 -.790E+00   0.371E-04 0.235E-04 -.139E-04
   0.317E+01 0.676E+01 0.773E+01   -.425E+01 -.599E+01 -.671E+01   0.108E+01 -.768E+00 -.103E+01   -.139E-04 -.961E-04 0.929E-04
   -.143E+01 -.116E+02 -.948E+01   0.518E+00 0.107E+02 0.830E+01   0.908E+00 0.884E+00 0.118E+01   0.116E-03 0.559E-04 -.501E-05
   -.426E+01 -.788E+01 -.124E+01   0.362E+01 0.684E+01 -.199E+00   0.638E+00 0.104E+01 0.144E+01   0.388E-04 -.495E-04 0.391E-04
   0.831E+01 0.223E+01 -.418E+00   -.794E+01 -.332E+01 0.109E+01   -.369E+00 0.109E+01 -.680E+00   0.105E-03 0.410E-04 0.812E-06
   -.334E+01 -.509E+00 -.204E+01   0.395E+01 -.717E+00 0.313E+01   -.612E+00 0.123E+01 -.108E+01   -.892E-05 -.513E-04 0.106E-04
   -.771E+01 0.447E+01 0.207E+01   0.755E+01 -.448E+01 -.220E+01   0.167E+00 0.692E-02 0.135E+00   0.691E-04 0.135E-03 -.117E-04
   0.156E+00 -.649E+01 -.981E+01   -.505E-01 0.631E+01 0.968E+01   -.107E+00 0.183E+00 0.130E+00   0.891E-04 -.805E-04 0.490E-04
   -.390E+00 0.923E+01 -.272E+00   0.344E+00 -.936E+01 0.779E+00   0.481E-01 0.138E+00 -.499E+00   -.180E-03 0.194E-04 -.514E-05
   0.244E+01 -.430E+00 0.227E+01   -.286E+01 -.103E+00 -.265E+01   0.422E+00 0.531E+00 0.382E+00   0.205E-04 0.132E-03 0.204E-03
   -.243E+02 0.245E+02 -.604E+02   0.268E+02 -.268E+02 0.646E+02   -.247E+01 0.228E+01 -.424E+01   0.503E-04 0.341E-04 -.997E-04
   -.393E+02 -.461E+02 0.388E+02   0.420E+02 0.497E+02 -.415E+02   -.268E+01 -.354E+01 0.273E+01   -.117E-05 0.199E-05 0.998E-04
   0.196E+02 0.726E+02 0.498E+02   -.204E+02 -.770E+02 -.530E+02   0.807E+00 0.446E+01 0.312E+01   -.317E-03 -.282E-03 -.360E-03
   0.558E+02 -.398E+02 -.331E+02   -.592E+02 0.422E+02 0.358E+02   0.345E+01 -.235E+01 -.271E+01   0.395E-04 0.115E-03 0.723E-04
   0.311E+02 -.458E+02 -.609E+02   -.330E+02 0.491E+02 0.641E+02   0.190E+01 -.335E+01 -.327E+01   -.890E-04 -.294E-04 0.243E-04
   0.487E+02 0.368E+02 0.369E+02   -.523E+02 -.399E+02 -.399E+02   0.352E+01 0.309E+01 0.303E+01   -.148E-03 -.168E-03 -.252E-03
   -.502E+02 -.382E+02 0.283E+02   0.534E+02 0.414E+02 -.304E+02   -.323E+01 -.323E+01 0.211E+01   -.359E-05 0.881E-04 -.129E-03
   -.502E+02 0.392E+02 -.367E+02   0.534E+02 -.422E+02 0.394E+02   -.318E+01 0.302E+01 -.278E+01   -.215E-03 0.149E-03 -.944E-04
   -.292E+02 -.431E+02 0.547E+02   0.315E+02 0.455E+02 -.589E+02   -.229E+01 -.247E+01 0.421E+01   0.328E-03 0.173E-03 -.189E-04
   -.444E+02 0.333E+02 -.416E+02   0.478E+02 -.365E+02 0.442E+02   -.341E+01 0.319E+01 -.260E+01   0.571E-04 -.832E-04 0.682E-05
   0.318E+02 -.413E+02 -.455E+02   -.346E+02 0.450E+02 0.488E+02   0.287E+01 -.363E+01 -.330E+01   0.142E-03 -.898E-04 -.709E-04
   0.531E+02 0.465E+02 0.165E+02   -.567E+02 -.497E+02 -.184E+02   0.354E+01 0.320E+01 0.196E+01   0.839E-04 -.181E-03 -.684E-04
   -.601E+02 -.254E+02 0.352E+02   0.641E+02 0.279E+02 -.381E+02   -.396E+01 -.253E+01 0.289E+01   -.150E-04 0.128E-03 -.555E-04
   -.381E+02 0.470E+02 -.383E+02   0.407E+02 -.506E+02 0.412E+02   -.263E+01 0.357E+01 -.291E+01   0.279E-03 0.574E-04 0.195E-03
   0.284E+02 -.227E+02 -.522E+02   -.311E+02 0.255E+02 0.560E+02   0.271E+01 -.278E+01 -.382E+01   0.378E-04 0.101E-03 0.709E-04
   0.392E+02 0.332E+02 0.528E+02   -.427E+02 -.355E+02 -.562E+02   0.344E+01 0.229E+01 0.340E+01   0.987E-04 0.900E-04 0.321E-04
   -.958E+00 0.596E+01 -.128E+02   0.102E+01 -.605E+01 0.132E+02   -.608E-01 0.873E-01 -.361E+00   -.396E-04 -.128E-03 0.161E-03
   0.352E+01 0.338E+01 -.189E+02   -.359E+01 -.351E+01 0.192E+02   0.601E-01 0.128E+00 -.311E+00   -.519E-04 0.901E-04 -.861E-05
   0.524E+01 0.982E+01 0.120E+00   -.538E+01 -.101E+02 -.133E+00   0.138E+00 0.238E+00 0.778E-02   0.147E-03 0.196E-04 0.935E-04
   -.544E+01 -.128E+01 -.200E+02   0.551E+01 0.131E+01 0.204E+02   -.692E-01 -.294E-01 -.331E+00   -.161E-03 -.855E-05 -.890E-04
   -.127E+02 0.164E+01 0.217E+02   0.129E+02 -.145E+01 -.222E+02   -.232E+00 -.189E+00 0.506E+00   -.388E-03 0.274E-04 -.236E-03
   0.215E+02 -.143E+02 0.432E+02   -.218E+02 0.146E+02 -.438E+02   0.292E+00 -.296E+00 0.597E+00   -.109E-03 -.717E-04 0.173E-03
   -.984E+01 -.316E+02 0.227E+02   0.983E+01 0.319E+02 -.230E+02   0.816E-02 -.306E+00 0.296E+00   -.250E-05 -.367E-03 -.185E-04
   0.185E+02 0.147E+01 0.232E+02   -.186E+02 -.150E+01 -.237E+02   0.134E+00 0.216E-01 0.483E+00   0.154E-03 0.234E-03 -.154E-03
   0.177E+01 -.351E+01 0.466E+01   -.160E-12 -.171E-13 0.462E-13   -.178E+01 0.350E+01 -.466E+01   -.153E-03 -.805E-04 -.426E-03

 POSITION                                       TOTAL-FORCE (eV/Angst)
      9.25534      3.06008      3.19703         0.000092     -0.000091      0.000043
      9.60258      6.77393      6.72310        -0.000002     -0.000073     -0.000311
      0.27606      2.66290      6.60448        -0.000031     -0.000015      0.000113
      0.70671      7.60586      0.76379         0.000472      0.000001     -0.000786
      1.75557      1.83559      9.40834         0.000162      0.000098      0.000157
      3.32919      6.26569      0.46005        -0.000136     -0.000505      0.000199
      7.68642      2.07741      0.19558        -0.000158     -0.000075     -0.000049
      6.71037      6.55046      9.34346         0.000008      0.000005     -0.000030
      1.92743      9.54670      2.17194        -0.000570      0.000081      0.000022
      3.10935      0.25253      7.05394         0.000145      0.000071      0.000313
      8.03497      9.28729      7.97436         0.000050     -0.000099      0.000040
      7.96466      0.19823      2.07394         0.000155     -0.000029      0.000079
      2.65495      7.72823      4.65500        -0.000126      0.000085      0.000024
      3.18355      2.07914      5.07676         0.000581     -0.000055      0.000118
      7.02599      7.94265      5.05946         0.000011      0.000122      0.000029
      6.43254      1.65226      4.51346         0.000017     -0.000039     -0.000107
      2.06251      4.63022      6.77172         0.000118     -0.000045     -0.000440
      1.62858      5.29408      3.10638        -0.000328      0.000161     -0.000111
      6.89811      4.65358      2.02432         0.000107      0.000016     -0.000072
      7.62809      4.98024      6.46869        -0.000201      0.000065     -0.000320
      4.61827      3.14479      8.04913        -0.000073      0.000009      0.000029
      4.69673      7.84145      2.88979        -0.000015     -0.000027      0.000002
      4.96994      2.93129      1.82605        -0.000107     -0.000051      0.000139
      5.17690      7.76053      6.93595         0.000072      0.000280      0.000117
      4.83098      4.89317      4.81672        -0.000042      0.000065     -0.000026
      4.89863      9.59396      0.06653        -0.000084     -0.000110      0.000142
      0.04398      4.78999      0.02081        -0.000110      0.000017     -0.000166
      0.04732      0.01137      4.91747         0.000140      0.000065      0.000213
      1.22993      8.67097      6.27591         0.000182      0.000003      0.000516
      1.19761      1.35839      3.86489         0.000197      0.000173      0.000276
      8.86022      8.32475      3.64937         0.000094     -0.000233     -0.000014
      8.28629      1.04989      5.98452        -0.000269      0.000217      0.000327
      8.57444      6.04932      1.18324         0.000061      0.000336      0.000043
      8.56510      3.67430      8.38839        -0.000576     -0.000245     -0.000279
      1.32366      6.01059      8.60566         0.000181     -0.000124     -0.000284
      1.12950      3.61703      1.29863        -0.000151      0.000117      0.000023
      5.99701      1.08176      8.42057        -0.000026      0.000029     -0.000277
      6.19115      8.46788      1.19237         0.000271     -0.000151      0.000228
      3.66216      1.13989      1.18522        -0.000108     -0.000037      0.000309
      3.69750      8.29957      8.67647        -0.000197     -0.000325      0.000013
      6.14095      6.06945      3.76554         0.000321      0.000118     -0.000187
      5.85414      3.51587      5.95387        -0.000013     -0.000274      0.000051
      3.71831      6.09488      6.05291        -0.000051      0.000301      0.000127
      3.58136      3.86442      3.56035        -0.000257      0.000058     -0.000051
      7.38088      7.17865      7.21774         0.000006      0.000007     -0.000087
      7.17291      2.38264      2.42895         0.000096     -0.000024     -0.000135
      2.48120      7.32870      2.38487        -0.000037      0.000056     -0.000039
      2.49886      2.44619      7.29192        -0.000039      0.000033      0.000040
      9.60565      0.17527      0.21451         0.000072      0.000015      0.000086
      0.14701      4.75851      5.14608         0.000007     -0.000010     -0.000002
      4.75255      9.43757      4.97601         0.000003      0.000028      0.000036
      5.13505      4.74006      0.18623         0.000091      0.000006     -0.000079
    total drift:                               -0.009145     -0.012447     -0.001702

  FREE ENERGIE OF THE ION-ELECTRON SYSTEM (eV)
  free  energy   TOTEN  =      -272.23960637 eV

  energy  without entropy=     -272.23960637  energy(sigma->0) =     -272.23960637

 d Force = 0.2514990E-06[ 0.241E-06, 0.262E-06]  d Energy = 0.6348465E-06-0.383E-06
 d Force =-0.3295462E-02[-0.330E-02,-0.330E-02]  d Ewald  =-0.3295462E-02-0.182E-11

 stress matrix after NEB project (eV)
     -0.21276      3.16912     -2.15700
      3.16912      1.12966     -0.90156
     -2.15700     -0.90156     -0.96653
  FORCES: max atom, RMS     0.000917    0.000327
  FORCE total and by dimension    0.002357    0.000786
  Stress total and by dimension    5.768290    3.169124

 reached required accuracy - stopping structural energy minimisation