 vasp.6.4.1 05Apr23 (build Jun 07 2023 15:38:11) complex

 executed on             LinuxIFC date 2023.10.01  02:22:52

 INCAR:
   GGA = PE
   PREC = Accu
   EDIFF = 1.e-5
   EDIFFG = -1.e-2
   ENCUT = 520.
   NELM = 100
   NELMDL = -10
   LASPH = .TRUE.
   LREAL = Auto
   LMAXMIX = 4
   ISPIN = 2
   LDIAG = .TRUE.
   LPLANE = .TRUE.
   IVDW = 12
   SIGMA = 0.03
   ISMEAR = 0
   NSW = 1000    number of steps for IOM
   IBRION = 1    ionic relax: 0-MD 1-quasi-New 2-CG
   ISIF = 2    ionic relaxation + stress tensor calcn.
   LCHARG = .FALSE.
   LWAVE = .FALSE.
   ALGO = V
   KPAR = 1
   NPAR = 4

 POTCAR:    PAW_PBE Li_sv_GW 25Mar2010
 POTCAR:    PAW_PBE P_GW 19Mar2012
 POTCAR:    PAW_PBE S_GW 19Mar2012
 POTCAR:    PAW_PBE Cl_GW 19Mar2012
|           W    W    AA    RRRRR   N    N  II  N    N   GGGG   !!!           |
|           W    W   A  A   R    R  NN   N  II  NN   N  G    G  !!!           |
|           W    W  A    A  R    R  N N  N  II  N N  N  G       !!!           |
|           W WW W  AAAAAA  RRRRR   N  N N  II  N  N N  G  GGG   !            |
|           WW  WW  A    A  R   R   N   NN  II  N   NN  G    G                |
|           W    W  A    A  R    R  N    N  II  N    N   GGGG   !!!           |
|     You use a magnetic or noncollinear calculation, but did not specify     |
|     the initial magnetic moment with the MAGMOM tag. Note that a            |
|     default of 1 will be used for all atoms. This ferromagnetic setup       |
|     may break the symmetry of the crystal, in particular it may rule        |
|     out finding an antiferromagnetic solution. Thence, we recommend         |
|     setting the initial magnetic moment manually or verifying carefully     |
|     that this magnetic setup is desired.                                    |

   TITEL  = PAW_PBE Li_sv_GW 25Mar2010
   POMASS =    7.010; ZVAL   =    3.000    mass and valenz
   ENMAX  =  433.699; ENMIN  =  325.274 eV

   TITEL  = PAW_PBE P_GW 19Mar2012
   POMASS =   30.974; ZVAL   =    5.000    mass and valenz
   ENMAX  =  255.040; ENMIN  =  191.280 eV

[...]

   TITEL  = PAW_PBE Cl_GW 19Mar2012
   POMASS =   35.453; ZVAL   =    7.000    mass and valenz
   ENMAX  =  262.472; ENMIN  =  196.854 eV

 Optimization of the real space projectors (new method)

 maximal supplied QI-value         = 25.13
 optimisation between [QCUT,QGAM] = [ 11.56, 23.12] = [ 37.43,149.72] Ry
 Optimized for a Real-space Cutoff    1.28 Angstroem

   l    n(q)    QCUT    max X(q) W(low)/X(q) W(high)/X(q)  e(spline)
   0      9    11.561    87.733    0.11E-03    0.32E-04    0.56E-06
   0      9    11.561    82.800    0.11E-03    0.35E-04    0.56E-06
   0      9    11.561     2.509    0.22E-03    0.42E-04    0.79E-06
   1      8    11.561    12.580    0.94E-04    0.26E-03    0.21E-06
   1      8    11.561     1.319    0.33E-04    0.15E-03    0.19E-06
   2      8    11.561     1.993    0.36E-04    0.89E-04    0.26E-06
 Optimization of the real space projectors (new method)

[...]

   l    n(q)    QCUT    max X(q) W(low)/X(q) W(high)/X(q)  e(spline)
   0     10    11.508     7.541    0.34E-04    0.13E-04    0.69E-07
   0     10    11.508     1.809    0.49E-04    0.27E-04    0.14E-06
   1     10    11.508     4.107    0.27E-05    0.41E-05    0.14E-06
   1     10    11.508     2.196    0.26E-05    0.25E-05    0.22E-06
   2      9    11.508     4.265    0.18E-03    0.11E-03    0.81E-06
   2      9    11.508     1.925    0.97E-04    0.76E-04    0.47E-06
 Optimization of the real space projectors (new method)

 maximal supplied QI-value         = 19.84
 optimisation between [QCUT,QGAM] = [ 11.51, 23.22] = [ 37.09,150.92] Ry
 Optimized for a Real-space Cutoff    1.21 Angstroem

   l    n(q)    QCUT    max X(q) W(low)/X(q) W(high)/X(q)  e(spline)
   0      8    11.508     6.761    0.57E-04    0.57E-04    0.35E-07
   0      8    11.508     1.642    0.14E-03    0.14E-03    0.91E-07
   1      8    11.508     3.519    0.20E-04    0.72E-04    0.47E-07
   1      8    11.508     2.150    0.27E-04    0.11E-03    0.89E-07
   2      7    11.508     2.976    0.19E-03    0.33E-03    0.16E-06
   2      7    11.508     1.494    0.14E-03    0.29E-03    0.14E-06
  PAW_PBE Li_sv_GW 25Mar2010            :
  PAW_PBE P_GW 19Mar2012                :
  PAW_PBE S_GW 19Mar2012                :
  PAW_PBE Cl_GW 19Mar2012               :

 POSCAR: Li24 P4 S20 Cl4
  positions in direct lattice
 exchange correlation table for  LEXCH =        8
   RHO(1)=    0.500       N(1)  =     2000
   RHO(2)=  100.500       N(2)  =     4000

 VTST: version 4.1, (05/19/21)

 CHAIN: initializing optimizer

 OPT: Using VASP QUASI-newton optimizer
 CHAIN: Read ICHAIN            0

 POSCAR: Li24 P4 S20 Cl4
  positions in direct lattice

 ion  position               nearest neighbor table
   1  0.977  0.250  0.250-
   2  0.976  0.750  0.750-
   3  0.024  0.250  0.750-
   4  0.023  0.750  0.250-
   5  0.250  0.250  0.977-
   6  0.250  0.750  0.023-
   7  0.750  0.250  0.023-
   8  0.750  0.750  0.977-
   9  0.250  0.977  0.250-
  10  0.250  0.023  0.750-
  11  0.750  0.977  0.750-
  12  0.750  0.023  0.250-
  13  0.250  0.750  0.477-
  14  0.250  0.250  0.523-
  15  0.750  0.750  0.523-
  16  0.750  0.250  0.477-
  17  0.250  0.477  0.750-
  18  0.250  0.523  0.250-
  19  0.750  0.477  0.250-
  20  0.750  0.523  0.750-
  21  0.478  0.250  0.750-
  22  0.477  0.750  0.250-
  23  0.523  0.250  0.250-
  24  0.522  0.750  0.750-
  25  0.500  0.500  0.500-  42 2.05  43 2.05  41 2.05  44 2.05
  26  0.500  0.000  0.000-  37 2.05  40 2.05  39 2.05  38 2.05
  27  0.000  0.500  1.000-  33 2.05  36 2.05  34 2.05  35 2.05
  28  0.000  0.000  0.500-  30 2.05  31 2.05  32 2.05  29 2.05
  29  0.118  0.882  0.618-  28 2.05
  30  0.118  0.118  0.382-  28 2.05
  31  0.882  0.882  0.382-  28 2.05
  32  0.882  0.118  0.618-  28 2.05
  33  0.882  0.618  0.118-  27 2.05
  34  0.882  0.382  0.882-  27 2.05
  35  0.118  0.618  0.882-  27 2.05
  36  0.118  0.382  0.118-  27 2.05
  37  0.619  0.118  0.882-  26 2.05
  38  0.618  0.882  0.118-  26 2.05
  39  0.382  0.118  0.118-  26 2.05
  40  0.381  0.882  0.882-  26 2.05
  41  0.618  0.618  0.382-  25 2.05
  42  0.619  0.382  0.618-  25 2.05
  43  0.381  0.618  0.618-  25 2.05
  44  0.382  0.382  0.382-  25 2.05
  45  0.749  0.750  0.750-
  46  0.750  0.250  0.250-
  47  0.250  0.750  0.250-
  48  0.251  0.250  0.750-
  49  0.000  0.000  0.000-
  50  0.000  0.500  0.500-
  51  0.500  0.000  0.500-
  52  0.500  0.500  1.000-

  LATTYP: Found a simple cubic cell.
 ALAT       =    10.0295315252

  Lattice vectors:

 A1 = (  10.0295315252,   0.0000000000,   0.0000000000)
 A2 = (   0.0000000000,  10.0295315252,   0.0000000000)
 A3 = (   0.0000000000,   0.0000000000,  10.0295315252)

Analysis of symmetry for initial positions (statically):
 Subroutine PRICEL returns:
 Original cell was already a primitive cell.

 Routine SETGRP: Setting up the symmetry group for a
 simple cubic supercell.

 Subroutine GETGRP returns: Found  4 space group operations
 (whereof  2 operations were pure point group operations)
 out of a pool of 48 trial point group operations.

The static configuration has the point symmetry C_2 .
 The point group associated with its full space group is D_2 .

Analysis of symmetry for dynamics (positions and initial velocities):
 Subroutine PRICEL returns:
 Original cell was already a primitive cell.

[...]

The dynamic configuration has the point symmetry C_2 .
 The point group associated with its full space group is D_2 .

Analysis of structural, dynamic, and magnetic symmetry:
 Subroutine PRICEL returns:
 Original cell was already a primitive cell.

 Routine SETGRP: Setting up the symmetry group for a
 simple cubic supercell.

 Subroutine GETGRP returns: Found  4 space group operations
 (whereof  2 operations were pure point group operations)
 out of a pool of 48 trial point group operations.

The overall configuration has the point symmetry C_2 .
 The point group associated with its full space group is D_2 .

 Subroutine INISYM returns: Found  4 space group operations
 (whereof  2 operations are pure point group operations),
 and found     1 'primitive' translations

                                     Primitive cell

  volume of cell :    1008.8856

  direct lattice vectors                    reciprocal lattice vectors
    10.029531525  0.000000000  0.000000000     0.099705554  0.000000000  0.000000000
     0.000000000 10.029531525  0.000000000     0.000000000  0.099705554  0.000000000
     0.000000000  0.000000000 10.029531525     0.000000000  0.000000000  0.099705554

  length of vectors
    10.029531525 10.029531525 10.029531525     0.099705554  0.099705554  0.099705554

  position of ions in fractional coordinates (direct lattice)
     0.977091982  0.250000000  0.250000000
     0.976294742  0.750000000  0.750000000
     0.023705258  0.250000000  0.750000000
     0.022908018  0.750000000  0.250000000
     0.250305697  0.250068667  0.976687025
     0.249759969  0.749914945  0.023347031
     0.750240031  0.250085055  0.023347031
     0.749694303  0.749931333  0.976687025
     0.249984017  0.976734415  0.249905317
     0.250086125  0.023371170  0.749745731
     0.749913875  0.976628830  0.749745731
     0.750015983  0.023265585  0.249905317
     0.249759969  0.750085055  0.476652969
     0.250305697  0.249931333  0.523312975
     0.749694303  0.750068667  0.523312975
     0.750240031  0.249914945  0.476652969
     0.250086125  0.476628830  0.750254269
     0.249984017  0.523265585  0.250094683
     0.750015983  0.476734415  0.250094683
     0.749913875  0.523371170  0.750254269
     0.477859131  0.250000000  0.750000000
     0.476788202  0.750000000  0.250000000
     0.523211798  0.250000000  0.250000000
     0.522140869  0.750000000  0.750000000
     0.500000000  0.500000000  0.499831531
     0.500000000  0.000000000  0.000168469
     0.000000000  0.500000000  0.999914506
     0.000000000  0.000000000  0.500085494
     0.117979829  0.881853606  0.618207513
     0.118266480  0.117976831  0.382098664
     0.881733520  0.882023169  0.382098664
     0.882020171  0.118146394  0.618207513
     0.881733520  0.617976831  0.117901336
     0.882020171  0.381853606  0.881792487
     0.117979829  0.618146394  0.881792487
     0.118266480  0.382023169  0.117901336
     0.618555418  0.117757870  0.882269260
     0.618041648  0.881821483  0.118193339
     0.381958352  0.118178517  0.118193339
     0.381444582  0.882242130  0.882269260
     0.618041648  0.618178517  0.381806661
     0.618555418  0.382242130  0.617730740
     0.381444582  0.617757870  0.617730740
     0.381958352  0.381821483  0.381806661
     0.749249074  0.750000000  0.750000000
     0.750118205  0.250000000  0.250000000
     0.249881795  0.750000000  0.250000000
     0.250750926  0.250000000  0.750000000
     0.000000000  0.000000000  0.000078710
     0.000000000  0.500000000  0.499921290
     0.500000000  0.000000000  0.500066430
     0.500000000  0.500000000  0.999933570

  ion indices of the primitive-cell ions
   primitive index   ion index
                 1           1
                 2           2
                 3           3
                 4           4
                 5           5
[...]
     13     -43.3070      1.00000
     14     -43.3069      1.00000
     15     -43.3065      1.00000
     16     -43.3064      1.00000
     17     -43.3059      1.00000
     18     -43.3059      1.00000
     19     -43.3054      1.00000
     20     -43.3053      1.00000
     21     -43.3046      1.00000
     22     -43.3046      1.00000
     23     -43.3045      1.00000
     24     -43.3044      1.00000
     25     -14.1290      1.00000
     26     -14.1144      1.00000
     27     -14.1141      1.00000
     28     -14.1138      1.00000
     29     -11.2727      1.00000
     30     -11.2717      1.00000
     31     -11.2709      1.00000
     32     -11.2098      1.00000
     33     -11.1454      1.00000
     34     -11.1447      1.00000
     35     -11.1437      1.00000
     36     -11.1207      1.00000
     37     -11.1198      1.00000
     38     -11.1190      1.00000
     39     -11.1188      1.00000
     40     -11.1169      1.00000
     41     -11.0886      1.00000
     42     -11.0832      1.00000
     43     -11.0819      1.00000
     44     -11.0812      1.00000
     45      -9.6616      1.00000
     46      -9.6613      1.00000
     47      -9.6609      1.00000
     48      -9.6577      1.00000
     49      -7.1203      1.00000
     50      -6.8316      1.00000
     51      -6.8310      1.00000
     52      -6.8301      1.00000
     53      -4.1754      1.00000
     54      -4.1748      1.00000
     55      -4.1740      1.00000
     56      -3.8937      1.00000
     57      -3.7331      1.00000
     58      -3.7328      1.00000
     59      -3.6343      1.00000
     60      -3.6328      1.00000
[...]
    162       8.2723      0.00000
    163       8.3343      0.00000
    164       8.3872      0.00000
    165       8.4176      0.00000
    166       8.5355      0.00000
    167       8.5716      0.00000
    168       8.6444      0.00000
    169       8.7056      0.00000
    170       8.7870      0.00000
    171       8.8728      0.00000
    172       8.9886      0.00000
    173       9.1062      0.00000
    174       9.3706      0.00000
    175       9.4879      0.00000
    176       9.8411      0.00000

[...]

 soft charge-density along one line, spin component           2
         0         1         2         3         4         5         6         7         8         9
 total charge-density along one line

------------------------ aborting loop because EDIFF is reached ----------------------------------------

         DFTD3 V3.0 Rev 1
 Edisp (eV)  -12.07305

 E6    (eV) :    -7.4345
 E8    (eV) :    -4.6385
 % E8        : 38.42

  FORCE on cell =-STRESS in cart. coord.  units (eV):
  Direction    XX          YY          ZZ          XY          YZ          ZX
  Alpha Z   269.06667   269.06667   269.06667
  Ewald   -2758.41561 -2756.98061 -2756.92374    -0.00000    -0.00000     0.00000
  Hartree   844.53562   845.36859   845.40005    -0.00000    -0.00000    -0.00000
  E(xc)    -946.80271  -946.80347  -946.80349     0.00000    -0.00000    -0.00000
  Local   -1761.05183 -1763.49775 -1763.59167    -0.00000    -0.00000    -0.00000
  n-local  1480.89791  1481.00436  1481.00818    -0.58199    -0.58122    -0.58201
  augment  -356.01401  -356.04733  -356.04851     0.00000     0.00000    -0.00000
  Kinetic  3239.85583  3240.22096  3240.23300    -1.04039    -1.03878    -1.04039
  Fock        0.00000     0.00000     0.00000     0.00000     0.00000     0.00000
  vdW       -12.82652   -12.82615   -12.82614    -0.00000    -0.00000     0.00000
  Total      -0.75464    -0.49473    -0.48564     0.00000     0.00000     0.00000
  in kB      -1.19842    -0.78567    -0.77123     0.00000     0.00000     0.00000

 VOLUME and BASIS-vectors are now :
  energy-cutoff  :      520.00
  volume of cell :     1008.89
      direct lattice vectors                 reciprocal lattice vectors
    10.029531525  0.000000000  0.000000000     0.099705554  0.000000000  0.000000000
     0.000000000 10.029531525  0.000000000     0.000000000  0.099705554  0.000000000
     0.000000000  0.000000000 10.029531525     0.000000000  0.000000000  0.099705554

  length of vectors
    10.029531525 10.029531525 10.029531525     0.099705554  0.099705554  0.099705554

 FORCES acting on ions
    electron-ion (+dipol)            ewald-force                    non-local-force                 convergence-correction
   -.686E+01 -.302E-08 -.285E-05   0.615E+01 -.129E-13 -.240E-13   0.690E+00 0.000E+00 0.000E+00   0.261E-02 0.640E-12 0.154E-11
   -.674E+01 0.633E-09 -.167E-05   0.605E+01 0.533E-14 0.249E-13   0.680E+00 0.000E+00 0.000E+00   0.137E-02 0.408E-12 0.978E-12
   0.674E+01 0.632E-09 0.167E-05   -.605E+01 0.888E-15 0.187E-13   -.680E+00 0.000E+00 0.000E+00   -.137E-02 -.208E-12 -.205E-12
   0.686E+01 -.302E-08 0.285E-05   -.615E+01 -.266E-14 -.115E-13   -.690E+00 0.000E+00 0.000E+00   -.261E-02 -.118E-11 0.613E-12
   0.913E-01 -.334E-01 -.684E+01   -.837E-01 0.310E-01 0.613E+01   -.682E-02 0.359E-02 0.699E+00   -.220E-03 -.563E-03 -.149E-03
   -.484E-02 0.496E-01 0.690E+01   0.167E-02 -.421E-01 -.620E+01   0.249E-02 -.638E-02 -.699E+00   0.460E-03 -.269E-03 0.706E-03
   0.484E-02 -.496E-01 0.690E+01   -.167E-02 0.421E-01 -.620E+01   -.249E-02 0.638E-02 -.699E+00   -.460E-03 0.269E-03 0.706E-03
   -.913E-01 0.334E-01 -.684E+01   0.837E-01 -.310E-01 0.613E+01   0.682E-02 -.359E-02 0.699E+00   0.220E-03 0.563E-03 -.149E-03
   0.809E-01 -.685E+01 0.175E-01   -.827E-01 0.615E+01 -.155E-01   -.707E-03 0.696E+00 -.356E-02   0.123E-02 0.270E-03 0.528E-03
   0.450E-02 0.688E+01 0.103E+00   0.169E-02 -.617E+01 -.904E-01   -.353E-02 -.701E+00 -.136E-01   -.100E-02 0.599E-03 0.857E-03
   -.450E-02 -.688E+01 0.103E+00   -.169E-02 0.617E+01 -.904E-01   0.353E-02 0.701E+00 -.136E-01   0.100E-02 -.599E-03 0.857E-03
   -.809E-01 0.685E+01 0.175E-01   0.827E-01 -.615E+01 -.155E-01   0.707E-03 -.696E+00 -.356E-02   -.123E-02 -.270E-03 0.528E-03
   -.484E-02 -.496E-01 -.690E+01   0.167E-02 0.421E-01 0.620E+01   0.249E-02 0.638E-02 0.699E+00   0.460E-03 0.269E-03 -.706E-03
   0.913E-01 0.334E-01 0.684E+01   -.837E-01 -.310E-01 -.613E+01   -.682E-02 -.359E-02 -.699E+00   -.220E-03 0.563E-03 0.149E-03
   -.913E-01 -.334E-01 0.684E+01   0.837E-01 0.310E-01 -.613E+01   0.682E-02 0.359E-02 -.699E+00   0.220E-03 -.563E-03 0.149E-03
   0.484E-02 0.496E-01 -.690E+01   -.167E-02 -.421E-01 0.620E+01   -.249E-02 -.638E-02 0.699E+00   -.460E-03 -.269E-03 -.706E-03
   0.450E-02 -.688E+01 -.103E+00   0.169E-02 0.617E+01 0.904E-01   -.353E-02 0.701E+00 0.136E-01   -.100E-02 -.599E-03 -.857E-03
   0.809E-01 0.685E+01 -.175E-01   -.827E-01 -.615E+01 0.155E-01   -.707E-03 -.696E+00 0.356E-02   0.123E-02 -.270E-03 -.528E-03
   -.809E-01 -.685E+01 -.175E-01   0.827E-01 0.615E+01 0.155E-01   0.707E-03 0.696E+00 0.356E-02   -.123E-02 0.270E-03 -.528E-03
   -.450E-02 0.688E+01 -.103E+00   -.169E-02 -.617E+01 0.904E-01   0.353E-02 -.701E+00 0.136E-01   0.100E-02 0.599E-03 -.857E-03
   -.679E+01 -.103E-08 -.272E-05   0.609E+01 -.355E-14 0.249E-13   0.682E+00 0.542E-19 0.000E+00   0.644E-02 0.508E-12 0.727E-12
   -.669E+01 0.270E-08 -.254E-05   0.600E+01 0.711E-14 -.178E-13   0.677E+00 0.000E+00 0.000E+00   0.452E-02 -.672E-13 0.172E-11
   0.669E+01 0.270E-08 0.254E-05   -.600E+01 0.355E-14 -.178E-13   -.677E+00 0.000E+00 0.000E+00   -.452E-02 -.582E-12 -.114E-11
   0.679E+01 -.103E-08 0.272E-05   -.609E+01 0.355E-14 0.160E-13   -.682E+00 -.542E-19 0.000E+00   -.644E-02 0.213E-12 -.219E-11
   0.301E-13 0.781E-12 -.134E+00   0.298E-13 0.127E-13 0.129E+00   0.000E+00 0.000E+00 0.828E-02   -.100E-11 0.242E-11 -.603E-03
   0.393E-13 0.107E-13 0.134E+00   0.171E-13 -.296E-13 -.129E+00   0.000E+00 0.000E+00 -.828E-02   0.103E-11 0.668E-12 0.603E-03
   0.684E-13 0.486E-12 -.621E-01   -.474E-13 -.279E-13 0.563E-01   0.000E+00 0.000E+00 0.587E-02   0.343E-12 -.133E-11 -.293E-04
   0.687E-13 -.339E-12 0.621E-01   -.554E-13 -.917E-15 -.563E-01   0.000E+00 0.000E+00 -.587E-02   -.866E-12 -.616E-12 0.293E-04
   -.450E+02 0.453E+02 -.453E+02   0.483E+02 -.485E+02 0.486E+02   -.328E+01 0.329E+01 -.329E+01   0.461E-02 -.245E-02 0.250E-02
   -.451E+02 -.452E+02 0.451E+02   0.484E+02 0.484E+02 -.484E+02   -.331E+01 -.329E+01 0.329E+01   0.505E-02 0.266E-02 -.248E-02
   0.451E+02 0.452E+02 0.451E+02   -.484E+02 -.484E+02 -.484E+02   0.331E+01 0.329E+01 0.329E+01   -.505E-02 -.266E-02 -.248E-02
   0.450E+02 -.453E+02 -.453E+02   -.483E+02 0.485E+02 0.486E+02   0.328E+01 -.329E+01 -.329E+01   -.461E-02 0.245E-02 0.250E-02
   0.451E+02 -.452E+02 -.451E+02   -.484E+02 0.484E+02 0.484E+02   0.331E+01 -.329E+01 -.329E+01   -.505E-02 0.266E-02 0.248E-02
   0.450E+02 0.453E+02 0.453E+02   -.483E+02 -.485E+02 -.486E+02   0.328E+01 0.329E+01 0.329E+01   -.461E-02 -.245E-02 -.250E-02
   -.450E+02 -.453E+02 0.453E+02   0.483E+02 0.485E+02 -.486E+02   -.328E+01 -.329E+01 0.329E+01   0.461E-02 0.245E-02 -.250E-02
   -.451E+02 0.452E+02 -.451E+02   0.484E+02 -.484E+02 0.484E+02   -.331E+01 0.329E+01 -.329E+01   0.505E-02 -.266E-02 0.248E-02
   -.453E+02 -.450E+02 0.451E+02   0.486E+02 0.483E+02 -.484E+02   -.333E+01 -.328E+01 0.328E+01   0.568E-02 0.150E-02 -.836E-03
   -.452E+02 0.452E+02 -.451E+02   0.485E+02 -.485E+02 0.484E+02   -.330E+01 0.329E+01 -.329E+01   0.394E-02 -.288E-02 0.339E-02
   0.452E+02 -.452E+02 -.451E+02   -.485E+02 0.485E+02 0.484E+02   0.330E+01 -.329E+01 -.329E+01   -.394E-02 0.288E-02 0.339E-02
   0.453E+02 0.450E+02 0.451E+02   -.486E+02 -.483E+02 -.484E+02   0.333E+01 0.328E+01 0.328E+01   -.568E-02 -.150E-02 -.836E-03
   -.452E+02 -.452E+02 0.451E+02   0.485E+02 0.485E+02 -.484E+02   -.330E+01 -.329E+01 0.329E+01   0.394E-02 0.288E-02 -.339E-02
   -.453E+02 0.450E+02 -.451E+02   0.486E+02 -.483E+02 0.484E+02   -.333E+01 0.328E+01 -.328E+01   0.568E-02 -.150E-02 0.836E-03
   0.453E+02 -.450E+02 -.451E+02   -.486E+02 0.483E+02 0.484E+02   0.333E+01 -.328E+01 -.328E+01   -.568E-02 0.150E-02 0.836E-03
   0.452E+02 0.452E+02 0.451E+02   -.485E+02 -.485E+02 -.484E+02   0.330E+01 0.329E+01 0.329E+01   -.394E-02 -.288E-02 -.339E-02
   0.145E+00 -.261E-10 -.749E-07   -.164E+00 0.178E-14 -.355E-14   0.257E-01 0.000E+00 0.108E-18   -.137E-02 0.101E-11 -.334E-11
   -.116E+00 0.690E-10 0.158E-07   0.117E+00 -.711E-14 -.355E-13   0.174E-02 0.000E+00 0.000E+00   -.159E-02 0.194E-12 -.158E-11
   0.116E+00 0.661E-10 -.158E-07   -.117E+00 -.160E-13 -.373E-13   -.174E-02 0.000E+00 0.000E+00   0.159E-02 -.510E-12 0.239E-11
   -.145E+00 -.254E-10 0.749E-07   0.164E+00 -.355E-14 0.373E-13   -.257E-01 0.000E+00 0.108E-18   0.137E-02 0.508E-12 -.573E-13
   -.349E-12 0.120E-13 0.101E+00   -.688E-13 -.306E-13 -.104E+00   0.000E+00 0.000E+00 0.842E-02   -.477E-12 0.854E-12 -.249E-02
   -.345E-12 0.738E-13 -.101E+00   -.726E-13 0.144E-13 0.104E+00   0.000E+00 0.000E+00 -.842E-02   0.380E-12 0.621E-12 0.249E-02
   -.101E-12 0.111E-13 -.269E-01   0.788E-13 -.848E-14 0.243E-01   0.000E+00 0.000E+00 0.963E-02   0.214E-12 -.363E-11 -.387E-02
   -.210E-12 -.117E-11 0.269E-01   0.625E-13 -.163E-13 -.243E-01   0.000E+00 0.000E+00 -.963E-02   0.777E-12 -.906E-12 0.387E-02
   -.739E-07 -.485E-07 0.537E-09   -.339E-13 0.834E-13 0.923E-13   -.888E-15 0.178E-14 -.888E-15   -.608E-12 0.423E-11 0.108E-10

 POSITION                                       TOTAL-FORCE (eV/Angst)
      9.79955      2.50738      2.50738        -0.001732      0.000000      0.000000
      9.79173      7.52215      7.52215        -0.000129      0.000000      0.000000
      0.23780      2.50738      7.52215         0.000129      0.000000      0.000000
      0.22998      7.52215      2.50738         0.001732      0.000000      0.000000
      2.51051      2.50812      9.79585         0.000594      0.000593      0.001503
      2.50496      7.52137      0.23398        -0.000166      0.000876     -0.001833
      7.52457      2.50816      0.23398         0.000166     -0.000876     -0.001833
      7.51902      7.52141      9.79585        -0.000594     -0.000593      0.001503
      2.50714      9.79627      2.50637        -0.001242      0.001178     -0.000940
      2.50838      0.23421      7.51956         0.001638     -0.002208     -0.000548
      7.52115      9.79532      7.51956        -0.001638      0.002208     -0.000548
      7.52239      0.23326      2.50637         0.001242     -0.001178     -0.000940
      2.50496      7.52293      4.78078        -0.000166     -0.000876      0.001833
      2.51051      2.50665      5.24845         0.000594     -0.000593     -0.001503
      7.51902      7.52288      5.24845        -0.000594      0.000593     -0.001503
      7.52457      2.50661      4.78078         0.000166      0.000876      0.001833
      2.50838      4.78056      7.52474         0.001638      0.002208      0.000548
      2.50714      5.24802      2.50840        -0.001242     -0.001178      0.000940
      7.52239      4.78151      2.50840         0.001242      0.001178      0.000940
      7.52115      5.24897      7.52474        -0.001638     -0.002208      0.000548
      4.79201      2.50738      7.52215        -0.008781      0.000000      0.000000
      4.78157      7.52215      2.50738        -0.003477      0.000000      0.000000
      5.24796      2.50738      2.50738         0.003477      0.000000      0.000000
      5.23752      7.52215      7.52215         0.008781      0.000000      0.000000
      5.01477      5.01477      5.01320         0.000000      0.000000      0.001851
      5.01477      0.00000      0.00157         0.000000      0.000000     -0.001851
      0.00000      5.01477     10.02867         0.000000      0.000000      0.000166
      0.00000      0.00000      5.01563         0.000000      0.000000     -0.000166
      1.18286      8.84473      6.20018        -0.001761     -0.001508      0.001412
      1.18573      1.18309      3.83241        -0.002047      0.001318     -0.001759
      8.84380      8.84645      3.83241         0.002047     -0.001318     -0.001759
      8.84668      1.18480      6.20018         0.001761      0.001508      0.001412
      8.84380      6.19785      1.18236         0.002047      0.001318      0.001759
      8.84668      3.82997      8.84412         0.001761     -0.001508     -0.001412
      1.18286      6.19957      8.84412        -0.001761      0.001508     -0.001412
      1.18573      3.83168      1.18236        -0.002047     -0.001318      0.001759
      6.20315      1.18111      8.84872        -0.005539      0.004668     -0.004445
      6.19821      8.84448      1.18524        -0.002316     -0.000372      0.000886
      3.83132      1.18505      1.18524         0.002316      0.000372      0.000886
      3.82638      8.84842      8.84872         0.005539     -0.004668     -0.004445
      6.19821      6.19981      3.82952        -0.002316      0.000372     -0.000886
      6.20315      3.83366      6.19558        -0.005539     -0.004668      0.004445
      3.82638      6.19587      6.19558         0.005539      0.004668      0.004445
      3.83132      3.82972      3.82952         0.002316     -0.000372     -0.000886
      7.51495      7.52215      7.52215         0.005494      0.000000      0.000000
      7.52342      2.50738      2.50738         0.001482      0.000000      0.000000
      2.50611      7.52215      2.50738        -0.001482      0.000000      0.000000
      2.51458      2.50738      7.52215        -0.005494      0.000000      0.000000
      0.00000      0.00000      0.00092         0.000000      0.000000      0.002653
      0.00000      5.01477      5.01384         0.000000      0.000000     -0.002653
      5.01477      0.00000      5.01558         0.000000      0.000000      0.003064
      5.01477      5.01477     10.02871         0.000000      0.000000     -0.003064
    total drift:                               -0.000000     -0.000000      0.000000

  FREE ENERGIE OF THE ION-ELECTRON SYSTEM (eV)
  free  energy   TOTEN  =      -268.23408484 eV

  energy  without entropy=     -268.23408484  energy(sigma->0) =     -268.23408484

 d Force = 0.9887929E-04[ 0.506E-04, 0.147E-03]  d Energy = 0.1170628E-03-0.182E-04
 d Force =-0.5682537E+00[-0.569E+00,-0.568E+00]  d Ewald  =-0.5682537E+00-0.110E-07

 stress matrix after NEB project (eV)
     -0.75464      0.00000      0.00000
      0.00000     -0.49473      0.00000
      0.00000      0.00000     -0.48564
  FORCES: max atom, RMS     0.008781    0.003782
  FORCE total and by dimension    0.027271    0.008781
  Stress total and by dimension    1.024735    0.754638
 Quasi-Newton relaxation of ions (Broydens 2nd method)
  g(Force)  = 0.359E-04   g(Stress)= 0.000E+00

 retain information from N=  1 steps
 eigenvalues of (default step * inverse Hessian matrix)
  average eigenvalue of G=   1.1791
 eigenvalue spectrum of G is  1.1791

 reached required accuracy - stopping structural energy minimisation