 vasp.6.4.1 05Apr23 (build Jun 07 2023 15:38:11) complex

 executed on             LinuxIFC date 2023.10.16  22:20:26

 INCAR:
   GGA = PE
   PREC = Accu
   EDIFF = 1.e-6
   EDIFFG = -1.e-3
   ENCUT = 520.
   NELM = 100
   NELMDL = -10
   LASPH = .TRUE.
   LREAL = Auto
   LMAXMIX = 4
   ISPIN = 2
   LDIAG = .TRUE.
   LPLANE = .TRUE.
   IVDW = 12
   SIGMA = 0.03
   ISMEAR = 0
   NSW = 1000    number of steps for IOM
   IBRION = 2    ionic relax: 0-MD 1-quasi-New 2-CG
   ISIF = 2    ionic relaxation + stress tensor calcn.
   LCHARG = .FALSE.
   LWAVE = .FALSE.
   ALGO = F
   KPAR = 1
   NPAR = 4
   POTIM = 0.2

 POTCAR:    PAW_PBE Li_sv_GW 25Mar2010
 POTCAR:    PAW_PBE P_GW 19Mar2012
 POTCAR:    PAW_PBE S_GW 19Mar2012
 POTCAR:    PAW_PBE Cl_GW 19Mar2012
|           W    W    AA    RRRRR   N    N  II  N    N   GGGG   !!!           |
|           W    W   A  A   R    R  NN   N  II  NN   N  G    G  !!!           |
|           W    W  A    A  R    R  N N  N  II  N N  N  G       !!!           |
|           W WW W  AAAAAA  RRRRR   N  N N  II  N  N N  G  GGG   !            |
|           WW  WW  A    A  R   R   N   NN  II  N   NN  G    G                |
|           W    W  A    A  R    R  N    N  II  N    N   GGGG   !!!           |
|     You use a magnetic or noncollinear calculation, but did not specify     |
|     the initial magnetic moment with the MAGMOM tag. Note that a            |
|     default of 1 will be used for all atoms. This ferromagnetic setup       |
|     may break the symmetry of the crystal, in particular it may rule        |
|     out finding an antiferromagnetic solution. Thence, we recommend         |
|     setting the initial magnetic moment manually or verifying carefully     |
|     that this magnetic setup is desired.                                    |

   TITEL  = PAW_PBE Li_sv_GW 25Mar2010
   POMASS =    7.010; ZVAL   =    3.000    mass and valenz
   ENMAX  =  433.699; ENMIN  =  325.274 eV

   TITEL  = PAW_PBE P_GW 19Mar2012
   POMASS =   30.974; ZVAL   =    5.000    mass and valenz
   ENMAX  =  255.040; ENMIN  =  191.280 eV

[...]

   TITEL  = PAW_PBE Cl_GW 19Mar2012
   POMASS =   35.453; ZVAL   =    7.000    mass and valenz
   ENMAX  =  262.472; ENMIN  =  196.854 eV

 Optimization of the real space projectors (new method)

 maximal supplied QI-value         = 25.13
 optimisation between [QCUT,QGAM] = [ 11.56, 23.12] = [ 37.43,149.72] Ry
 Optimized for a Real-space Cutoff    1.28 Angstroem

   l    n(q)    QCUT    max X(q) W(low)/X(q) W(high)/X(q)  e(spline)
   0      9    11.561    87.733    0.11E-03    0.32E-04    0.56E-06
   0      9    11.561    82.800    0.11E-03    0.35E-04    0.56E-06
   0      9    11.561     2.509    0.22E-03    0.42E-04    0.79E-06
   1      8    11.561    12.580    0.94E-04    0.26E-03    0.21E-06
   1      8    11.561     1.319    0.33E-04    0.15E-03    0.19E-06
   2      8    11.561     1.993    0.36E-04    0.89E-04    0.26E-06
 Optimization of the real space projectors (new method)

[...]

   l    n(q)    QCUT    max X(q) W(low)/X(q) W(high)/X(q)  e(spline)
   0     10    11.508     7.541    0.34E-04    0.13E-04    0.69E-07
   0     10    11.508     1.809    0.49E-04    0.27E-04    0.14E-06
   1     10    11.508     4.107    0.27E-05    0.41E-05    0.14E-06
   1     10    11.508     2.196    0.26E-05    0.25E-05    0.22E-06
   2      9    11.508     4.265    0.18E-03    0.11E-03    0.81E-06
   2      9    11.508     1.925    0.97E-04    0.76E-04    0.47E-06
 Optimization of the real space projectors (new method)

 maximal supplied QI-value         = 19.84
 optimisation between [QCUT,QGAM] = [ 11.51, 23.22] = [ 37.09,150.92] Ry
 Optimized for a Real-space Cutoff    1.21 Angstroem

   l    n(q)    QCUT    max X(q) W(low)/X(q) W(high)/X(q)  e(spline)
   0      8    11.508     6.761    0.57E-04    0.57E-04    0.35E-07
   0      8    11.508     1.642    0.14E-03    0.14E-03    0.91E-07
   1      8    11.508     3.519    0.20E-04    0.72E-04    0.47E-07
   1      8    11.508     2.150    0.27E-04    0.11E-03    0.89E-07
   2      7    11.508     2.976    0.19E-03    0.33E-03    0.16E-06
   2      7    11.508     1.494    0.14E-03    0.29E-03    0.14E-06
  PAW_PBE Li_sv_GW 25Mar2010            :
  PAW_PBE P_GW 19Mar2012                :
  PAW_PBE S_GW 19Mar2012                :
  PAW_PBE Cl_GW 19Mar2012               :

 POSCAR: Li24 P4 S20 Cl4
  positions in direct lattice
  velocities in cartesian coordinates
 exchange correlation table for  LEXCH =        8
   RHO(1)=    0.500       N(1)  =     2000
   RHO(2)=  100.500       N(2)  =     4000

 VTST: version 4.1, (05/19/21)

 CHAIN: initializing optimizer

 OPT: Using VASP Conjugate-Gradient optimizer
 CHAIN: Read ICHAIN            0

 POSCAR: Li24 P4 S20 Cl4
  positions in direct lattice
  velocities in cartesian coordinates

 ion  position               nearest neighbor table
   1  0.956  0.162  0.186-
   2  0.986  0.796  0.787-
   3  0.032  0.163  0.823-
   4  0.013  0.795  0.206-
   5  0.272  0.296  0.982-
   6  0.208  0.830  0.016-
   7  0.706  0.328  0.027-
   8  0.790  0.837  0.974-
   9  0.307  0.972  0.328-
  10  0.316  0.010  0.702-
  11  0.661  0.971  0.686-
  12  0.668  0.052  0.340-
  13  0.192  0.671  0.459-
  14  0.313  0.218  0.522-
  15  0.806  0.723  0.522-
  16  0.830  0.297  0.484-
  17  0.172  0.458  0.690-
  18  0.279  0.532  0.172-
  19  0.809  0.494  0.298-
  20  0.804  0.525  0.707-
  21  0.475  0.312  0.795-
  22  0.479  0.723  0.203-
  23  0.513  0.302  0.225-
  24  0.537  0.665  0.827-
  25  0.497  0.513  0.503-  43 2.05  41 2.05  42 2.06  44 2.07
  26  0.503  0.012  0.009-  37 2.05  38 2.05  39 2.05  40 2.06
  27  0.995  0.502  0.999-  34 2.05  35 2.05  36 2.05  33 2.06
  28  0.001  0.005  0.502-  30 2.04  32 2.05  29 2.06  31 2.06
  29  0.130  0.871  0.605-  28 2.06
  30  0.117  0.137  0.384-  28 2.04
  31  0.871  0.900  0.370-  28 2.06
  32  0.875  0.109  0.637-  28 2.05
  33  0.859  0.628  0.102-  27 2.06
  34  0.890  0.370  0.870-  27 2.05
  35  0.134  0.617  0.886-  27 2.05
  36  0.098  0.377  0.137-  27 2.05
  37  0.626  0.133  0.886-  26 2.05
  38  0.627  0.902  0.142-  26 2.05
  39  0.366  0.122  0.127-  26 2.05
  40  0.403  0.872  0.882-  26 2.06
  41  0.619  0.638  0.383-  25 2.05
  42  0.622  0.380  0.614-  25 2.06
  43  0.373  0.620  0.637-  25 2.05
  44  0.359  0.408  0.379-  25 2.07
  45  0.751  0.753  0.752-
  46  0.747  0.265  0.257-
  47  0.245  0.756  0.241-
  48  0.250  0.238  0.753-
  49  0.003  0.973  0.996-
  50  0.970  0.519  0.509-
  51  0.480  0.025  0.506-
  52  0.482  0.472  0.011-

  LATTYP: Found a simple cubic cell.
 ALAT       =     9.6601830969

  Lattice vectors:

 A1 = (   9.6601830969,   0.0000000000,   0.0000000000)
 A2 = (   0.0000000000,   9.6601830969,   0.0000000000)
 A3 = (   0.0000000000,   0.0000000000,   9.6601830969)

Analysis of symmetry for initial positions (statically):
 Subroutine PRICEL returns:
 Original cell was already a primitive cell.

 Routine SETGRP: Setting up the symmetry group for a
 simple cubic supercell.

 Subroutine GETGRP returns: Found  1 space group operations
 (whereof  1 operations were pure point group operations)
 out of a pool of 48 trial point group operations.

The static configuration has the point symmetry C_1 .

Analysis of symmetry for dynamics (positions and initial velocities):
 Subroutine PRICEL returns:
 Original cell was already a primitive cell.

[...]

The dynamic configuration has the point symmetry C_1 .

Analysis of structural, dynamic, and magnetic symmetry:
 Subroutine PRICEL returns:
 Original cell was already a primitive cell.

 Routine SETGRP: Setting up the symmetry group for a
 simple cubic supercell.

 Subroutine GETGRP returns: Found  1 space group operations
 (whereof  1 operations were pure point group operations)
 out of a pool of 48 trial point group operations.

The overall configuration has the point symmetry C_1 .

 Subroutine INISYM returns: Found  1 space group operations
 (whereof  1 operations are pure point group operations),
 and found     1 'primitive' translations

                                     Primitive cell

  volume of cell :     901.4800

  direct lattice vectors                    reciprocal lattice vectors
     9.660183097  0.000000000  0.000000000     0.103517707  0.000000000  0.000000000
     0.000000000  9.660183097  0.000000000     0.000000000  0.103517707  0.000000000
     0.000000000  0.000000000  9.660183097     0.000000000  0.000000000  0.103517707

  length of vectors
     9.660183097  9.660183097  9.660183097     0.103517707  0.103517707  0.103517707

  position of ions in fractional coordinates (direct lattice)
     0.955804131  0.161715763  0.185657261
     0.985516117  0.796302582  0.786672666
     0.031541067  0.163237370  0.822983451
     0.012773068  0.794685112  0.205525228
     0.271659987  0.296049014  0.982206654
     0.208376052  0.829744080  0.016098210
     0.706470197  0.327509092  0.027069290
     0.790200970  0.837215665  0.973968076
     0.306694541  0.971808355  0.328120869
     0.316122291  0.010260177  0.701634205
     0.660500519  0.970594597  0.686280730
     0.668099417  0.051727551  0.339689683
     0.191723642  0.670540990  0.459473560
     0.313462991  0.217918420  0.521815827
     0.805567134  0.723248883  0.521907557
     0.829904038  0.296630915  0.484191132
     0.171529583  0.457978058  0.689616429
     0.278976392  0.532292516  0.172155064
     0.809370204  0.493715600  0.297520341
     0.804398176  0.524779305  0.706836413
     0.474698525  0.312059702  0.794620064
     0.479056282  0.722514703  0.203157414
     0.512889220  0.301812766  0.224581990
     0.536788642  0.665099435  0.826754817
     0.497254138  0.513096338  0.503259162
     0.503372878  0.011725393  0.008695159
     0.995493097  0.501714659  0.998826331
     0.001177478  0.005339706  0.501714422
     0.129712704  0.871200687  0.605475271
     0.117174625  0.137489481  0.383971469
     0.870520799  0.900368184  0.370322724
     0.875046558  0.109496931  0.637072645
     0.859098129  0.628256165  0.102029671
     0.889770859  0.369721701  0.870251802
     0.133533698  0.617040288  0.885604595
     0.097538423  0.376917722  0.137356724
     0.625643017  0.133307789  0.885672375
     0.626656605  0.901771230  0.141678818
     0.365970841  0.121791481  0.127449144
     0.403461620  0.872174370  0.881804046
     0.619334645  0.637946830  0.383060450
     0.621926902  0.380476465  0.613539531
     0.372887568  0.620166990  0.637367565
     0.358686541  0.408049023  0.378808784
     0.751443767  0.753206232  0.752280341
     0.746600621  0.265067159  0.257097644
     0.245392994  0.756476570  0.241058039
     0.250167914  0.238448587  0.752665765
     0.002944777  0.972893120  0.995977934
     0.970228522  0.519040264  0.509094555
     0.480060355  0.025216480  0.506038242
     0.481787209  0.472159504  0.010938839

  ion indices of the primitive-cell ions
   primitive index   ion index
                 1           1
                 2           2
                 3           3
                 4           4
                 5           5
                 6           6
                 7           7
                 8           8
[...]
     17     -42.3176      1.00000
     18     -42.3092      1.00000
     19     -42.3088      1.00000
     20     -42.2977      1.00000
     21     -42.2785      1.00000
     22     -42.2627      1.00000
     23     -42.2348      1.00000
     24     -42.2056      1.00000
     25     -13.0399      1.00000
     26     -13.0011      1.00000
     27     -12.9818      1.00000
     28     -12.9344      1.00000
     29     -12.6932      1.00000
     30     -12.6488      1.00000
     31     -12.5642      1.00000
     32     -12.4135      1.00000
     33     -10.2785      1.00000
     34     -10.2504      1.00000
     35     -10.2173      1.00000
     36     -10.1202      1.00000
     37     -10.0485      1.00000
     38     -10.0357      1.00000
     39      -9.9893      1.00000
     40      -9.9673      1.00000
     41      -9.9535      1.00000
     42      -9.9367      1.00000
     43      -9.8961      1.00000
     44      -9.8193      1.00000
     45      -8.4155      1.00000
     46      -8.3302      1.00000
     47      -8.2917      1.00000
     48      -8.2500      1.00000
     49      -6.1173      1.00000
     50      -5.6987      1.00000
     51      -5.6598      1.00000
     52      -5.5948      1.00000
     53      -3.2233      1.00000
     54      -3.1957      1.00000
     55      -3.1541      1.00000
     56      -2.8401      1.00000
     57      -2.6909      1.00000
     58      -2.6619      1.00000
     59      -2.5480      1.00000
     60      -2.4789      1.00000
[...]
    162       9.0803      0.00000
    163       9.1605      0.00000
    164       9.1845      0.00000
    165       9.2579      0.00000
    166       9.2973      0.00000
    167       9.3795      0.00000
    168       9.4165      0.00000
    169       9.4890      0.00000
    170       9.5222      0.00000
    171       9.5842      0.00000
    172       9.6685      0.00000
    173       9.7059      0.00000
    174       9.7560      0.00000
    175       9.8060      0.00000
    176       9.9029      0.00000

[...]

 soft charge-density along one line, spin component           2
         0         1         2         3         4         5         6         7         8         9
 total charge-density along one line

------------------------ aborting loop because EDIFF is reached ----------------------------------------

         DFTD3 V3.0 Rev 1
 Edisp (eV)  -13.57496

 E6    (eV) :    -8.3651
 E8    (eV) :    -5.2099
 % E8        : 38.38

  FORCE on cell =-STRESS in cart. coord.  units (eV):
  Direction    XX          YY          ZZ          XY          YZ          ZX
  Alpha Z   301.12428   301.12428   301.12428
  Ewald   -2907.69459 -3029.99562 -2883.90222    -4.85336   -51.09297   -23.56010
  Hartree   746.79447   692.72225   766.82771    -0.51503   -17.83692    -1.12898
  E(xc)    -947.61548  -947.96529  -947.69915    -0.03351    -0.11846    -0.10675
  Local   -1543.21994 -1377.95090 -1587.94343     4.46103    64.70334    20.13709
  n-local  1481.08031  1481.59324  1481.68288    -0.05870    -0.82951    -0.43303
  augment  -356.42490  -357.32873  -356.89066    -0.13194    -0.07816    -0.20846
  Kinetic  3238.30069  3252.07108  3242.98947     2.33407     3.34720     4.26416
  Fock        0.00000     0.00000     0.00000     0.00000     0.00000     0.00000
  vdW       -14.36325   -14.37655   -14.31458    -0.00438    -0.00756    -0.01195
  Total      -2.01841    -0.10625     1.87431     1.19816    -1.91305    -1.04802
  in kB      -3.58726    -0.18883     3.33116     2.12947    -3.40001    -1.86261

 VOLUME and BASIS-vectors are now :
  energy-cutoff  :      520.00
  volume of cell :      901.48
      direct lattice vectors                 reciprocal lattice vectors
     9.660183097  0.000000000  0.000000000     0.103517707  0.000000000  0.000000000
     0.000000000  9.660183097  0.000000000     0.000000000  0.103517707  0.000000000
     0.000000000  0.000000000  9.660183097     0.000000000  0.000000000  0.103517707

  length of vectors
     9.660183097  9.660183097  9.660183097     0.103517707  0.103517707  0.103517707

 FORCES acting on ions
    electron-ion (+dipol)            ewald-force                    non-local-force                 convergence-correction
   -.232E+01 0.945E+01 0.150E+02   0.131E+01 -.787E+01 -.135E+02   0.102E+01 -.158E+01 -.144E+01   0.114E-03 0.236E-04 0.738E-04
   -.574E+01 -.458E+01 0.138E+01   0.488E+01 0.370E+01 -.254E+01   0.855E+00 0.884E+00 0.117E+01   -.374E-04 -.649E-04 0.199E-04
   0.510E+00 0.597E+01 -.102E+02   0.181E+00 -.492E+01 0.873E+01   -.688E+00 -.104E+01 0.147E+01   0.289E-04 0.148E-04 -.384E-04
   0.190E+01 0.379E+00 -.662E+01   -.126E+01 -.977E+00 0.756E+01   -.632E+00 0.600E+00 -.942E+00   -.465E-05 -.101E-03 -.130E-03
   0.567E+01 0.848E+00 0.396E+00   -.641E+01 -.208E+01 -.114E+01   0.732E+00 0.124E+01 0.742E+00   0.129E-03 -.205E-04 0.663E-04
   -.247E+01 -.689E+01 0.690E+01   0.367E+01 0.611E+01 -.594E+01   -.120E+01 0.774E+00 -.950E+00   -.653E-04 0.106E-03 -.291E-04
   -.391E+00 -.775E+01 0.336E+01   0.156E+01 0.648E+01 -.264E+01   -.117E+01 0.127E+01 -.715E+00   -.257E-04 0.459E-04 -.670E-05
   0.663E+01 -.567E+01 -.573E+00   -.742E+01 0.471E+01 -.189E-01   0.795E+00 0.963E+00 0.589E+00   0.410E-04 -.205E-04 0.405E-04
   -.626E+01 0.535E+01 -.396E+01   0.542E+01 -.622E+01 0.291E+01   0.840E+00 0.869E+00 0.105E+01   -.706E-04 0.147E-03 0.266E-04
   -.120E+01 0.103E+02 -.190E+01   0.579E+00 -.969E+01 0.284E+01   0.626E+00 -.612E+00 -.947E+00   -.127E-04 0.142E-03 0.283E-05
   0.945E+01 0.134E+01 0.111E+02   -.813E+01 -.227E+01 -.102E+02   -.133E+01 0.920E+00 -.927E+00   0.314E-04 0.477E-04 0.414E-04
   0.702E+01 0.171E+01 -.119E+02   -.606E+01 -.859E+00 0.105E+02   -.962E+00 -.847E+00 0.135E+01   -.800E-04 0.379E-04 -.155E-04
   0.589E+01 0.939E+01 0.108E+00   -.490E+01 -.778E+01 -.109E+01   -.976E+00 -.161E+01 0.983E+00   0.386E-04 -.217E-05 -.201E-05
   0.866E+00 -.471E+01 0.395E+01   -.174E+01 0.551E+01 -.322E+01   0.872E+00 -.807E+00 -.727E+00   -.240E-04 0.312E-05 -.995E-04
   0.191E+01 -.508E+01 0.398E+01   -.292E+01 0.604E+01 -.328E+01   0.101E+01 -.963E+00 -.700E+00   0.172E-04 0.864E-05 0.154E-04
   -.105E+02 0.122E+01 -.322E+01   0.937E+01 -.228E+01 0.253E+01   0.117E+01 0.106E+01 0.685E+00   -.753E-05 -.815E-04 0.775E-04
   0.926E+01 0.135E+01 0.153E+02   -.778E+01 -.247E+01 -.139E+02   -.149E+01 0.112E+01 -.144E+01   -.125E-04 -.341E-04 0.283E-04
   -.462E+01 -.222E+01 0.157E+01   0.328E+01 0.316E+01 -.274E+00   0.134E+01 -.937E+00 -.129E+01   -.121E-03 -.253E-03 0.591E-04
   -.844E+01 -.398E+01 0.750E-01   0.718E+01 0.307E+01 -.131E+01   0.126E+01 0.907E+00 0.124E+01   -.204E-04 0.594E-04 0.824E-05
   0.212E+01 0.361E+01 -.652E+01   -.274E+01 -.298E+01 0.748E+01   0.625E+00 -.624E+00 -.963E+00   -.299E-04 0.300E-04 -.182E-04
   -.419E+01 -.843E+01 0.136E+01   0.351E+01 0.714E+01 -.247E+01   0.678E+00 0.130E+01 0.112E+01   -.509E-04 -.315E-04 0.116E-03
   -.598E+01 0.101E+02 0.904E+01   0.554E+01 -.850E+01 -.760E+01   0.438E+00 -.159E+01 -.144E+01   0.896E-04 0.118E-03 0.205E-03
   -.106E+01 0.270E+00 -.448E+01   0.182E+01 -.820E+00 0.549E+01   -.758E+00 0.552E+00 -.101E+01   -.148E-03 -.552E-04 -.426E-04
   -.812E+00 0.994E+01 -.122E+02   0.149E+01 -.832E+01 0.108E+02   -.677E+00 -.161E+01 0.140E+01   0.868E-04 0.215E-04 -.402E-04
   -.470E+00 -.917E+01 -.872E+00   0.407E+00 0.958E+01 0.111E+01   0.541E-01 -.401E+00 -.235E+00   0.772E-04 -.192E-04 -.424E-04
   0.239E+01 0.257E+00 0.264E+01   -.204E+01 -.177E+00 -.250E+01   -.347E+00 -.878E-01 -.147E+00   -.168E-03 0.321E-03 0.184E-03
   0.353E+01 -.431E+00 -.213E+01   -.350E+01 0.170E+00 0.212E+01   -.253E-01 0.253E+00 0.693E-02   -.193E-03 -.294E-04 -.117E-03
   -.355E+01 -.382E+01 -.389E+01   0.357E+01 0.409E+01 0.377E+01   -.206E-01 -.272E+00 0.120E+00   0.208E-03 -.514E-05 0.186E-04
   -.488E+02 0.434E+02 -.294E+02   0.524E+02 -.469E+02 0.316E+02   -.360E+01 0.350E+01 -.219E+01   -.156E-03 0.790E-04 -.839E-04
   -.265E+02 -.615E+02 0.386E+02   0.286E+02 0.653E+02 -.416E+02   -.210E+01 -.377E+01 0.300E+01   0.404E-03 0.119E-03 -.255E-03
   0.432E+02 0.282E+02 0.420E+02   -.466E+02 -.301E+02 -.452E+02   0.343E+01 0.196E+01 0.321E+01   -.166E-04 -.105E-03 0.299E-04
   0.425E+02 -.338E+02 -.466E+02   -.456E+02 0.362E+02 0.501E+02   0.310E+01 -.237E+01 -.355E+01   -.236E-03 0.194E-03 0.160E-03
   0.625E+02 -.272E+02 -.283E+02   -.669E+02 0.299E+02 0.306E+02   0.438E+01 -.268E+01 -.230E+01   0.524E-04 0.191E-03 0.569E-04
   0.309E+02 0.503E+02 0.412E+02   -.331E+02 -.537E+02 -.443E+02   0.227E+01 0.338E+01 0.303E+01   -.348E-04 0.124E-03 0.140E-03
   -.593E+02 -.291E+02 0.398E+02   0.635E+02 0.310E+02 -.426E+02   -.421E+01 -.192E+01 0.284E+01   -.173E-03 0.124E-03 -.256E-03
   -.137E+02 0.463E+02 -.659E+02   0.153E+02 -.491E+02 0.701E+02   -.160E+01 0.277E+01 -.424E+01   0.296E-03 -.310E-03 0.189E-03
   -.568E+02 -.266E+02 0.413E+02   0.607E+02 0.290E+02 -.443E+02   -.384E+01 -.237E+01 0.302E+01   -.109E-03 0.285E-03 -.149E-03
   -.401E+02 0.358E+02 -.437E+02   0.432E+02 -.381E+02 0.470E+02   -.310E+01 0.228E+01 -.329E+01   0.396E-04 0.832E-05 0.218E-03
   0.581E+02 -.190E+02 -.371E+02   -.622E+02 0.212E+02 0.402E+02   0.412E+01 -.214E+01 -.308E+01   0.152E-03 0.202E-03 -.701E-04
   0.248E+02 0.509E+02 0.451E+02   -.269E+02 -.545E+02 -.486E+02   0.212E+01 0.359E+01 0.343E+01   -.137E-03 0.986E-04 -.105E-03
   -.187E+02 -.555E+02 0.347E+02   0.214E+02 0.594E+02 -.379E+02   -.264E+01 -.387E+01 0.316E+01   0.365E-04 0.148E-03 -.301E-04
   -.302E+02 0.536E+02 -.300E+02   0.328E+02 -.577E+02 0.328E+02   -.261E+01 0.412E+01 -.278E+01   0.130E-03 -.123E-03 0.128E-03
   0.298E+02 -.543E+02 -.415E+02   -.324E+02 0.572E+02 0.448E+02   0.267E+01 -.290E+01 -.326E+01   -.363E-04 0.487E-04 -.780E-04
   0.583E+02 0.253E+02 0.265E+02   -.625E+02 -.276E+02 -.286E+02   0.423E+01 0.232E+01 0.218E+01   0.857E-05 -.434E-03 -.245E-03
   0.242E+02 -.435E+01 -.180E+01   -.247E+02 0.456E+01 0.185E+01   0.426E+00 -.206E+00 -.504E-01   0.161E-03 0.285E-04 -.390E-04
   -.601E+01 0.879E+01 0.967E+00   0.618E+01 -.901E+01 -.102E+01   -.158E+00 0.227E+00 0.547E-01   -.895E-04 -.223E-05 -.790E-04
   -.381E+01 -.208E+01 -.171E+02   0.381E+01 0.226E+01 0.175E+02   0.683E-02 -.188E+00 -.408E+00   0.156E-06 0.209E-03 0.206E-03
   0.166E+02 0.176E+01 0.345E+01   -.169E+02 -.183E+01 -.352E+01   0.344E+00 0.712E-01 0.667E-01   0.195E-03 0.255E-04 0.594E-04
   -.165E+01 -.418E+02 -.319E+01   0.167E+01 0.425E+02 0.330E+01   -.130E-01 -.679E+00 -.115E+00   0.489E-04 -.209E-03 0.916E-04
   -.445E+02 0.160E+02 0.175E+02   0.452E+02 -.163E+02 -.179E+02   -.750E+00 0.216E+00 0.385E+00   -.991E-04 0.223E-03 0.443E-04
   -.245E+02 0.274E+02 -.551E+00   0.249E+02 -.279E+02 0.493E+00   -.373E+00 0.446E+00 0.610E-01   -.143E-03 0.933E-04 -.109E-03
   -.193E+02 -.418E+02 0.911E+01   0.196E+02 0.425E+02 -.920E+01   -.290E+00 -.635E+00 0.910E-01   -.198E-04 -.107E-02 -.133E-03
   -.385E+01 -.854E+00 0.267E+01   0.995E-13 -.568E-13 -.533E-14   0.384E+01 0.865E+00 -.268E+01   0.653E-04 0.357E-03 0.940E-04

 POSITION                                       TOTAL-FORCE (eV/Angst)
      9.23325      1.56203      1.79347        -0.000153     -0.000454     -0.000036
      9.52030      7.69246      7.59945         0.000112      0.000043      0.000019
      0.30464      1.57686      7.95021        -0.000053     -0.000110      0.000016
      0.12344      7.67670      1.98542         0.000082     -0.000353      0.000005
      2.62425      2.85990      9.48833        -0.000233      0.000015      0.000034
      2.01291      8.01560      0.15547        -0.000001      0.000278      0.000010
      6.82462      3.16391      0.26147         0.000050      0.000255      0.000050
      7.63352      8.08778      9.40872        -0.000044      0.000334      0.000007
      2.96279      9.38788      3.16975         0.000157     -0.000048      0.000133
      3.05379      0.09909      6.77785        -0.000034     -0.000070     -0.000092
      6.38043      9.37615      6.62963        -0.000307     -0.000058      0.000123
      6.45394      0.49966      3.28159         0.000023      0.000020      0.000260
      1.85219      6.47740      4.43860         0.000341     -0.000399     -0.000139
      3.02822      2.10514      5.04080         0.000318      0.000117      0.000000
      7.78201      6.98674      5.04168         0.000234      0.000165     -0.000060
      8.01727      2.86555      4.67736         0.000681     -0.000019     -0.000111
      1.65689      4.42421      6.66178        -0.000230      0.000037     -0.000071
      2.69499      5.14205      1.66289        -0.000217      0.000108     -0.000480
      7.81865      4.76944      2.87419        -0.000039      0.000057      0.000117
      7.77062      5.06942      6.82808        -0.000121     -0.000119     -0.000224
      4.58568      3.01470      7.67622        -0.000004      0.000298     -0.000023
      4.62781      6.97935      1.96228         0.000132     -0.000635     -0.000724
      4.95457      2.91558      2.16951        -0.000079      0.000042      0.000127
      5.18546      6.42492      7.98671         0.000069     -0.000076      0.000278
      4.80360      4.95663      4.86158         0.000246     -0.000078     -0.000246
      4.86259      0.11330      0.08418        -0.000330      0.000071      0.000895
      9.61653      4.84657      9.64888        -0.000423     -0.000231      0.000865
      0.01145      0.05151      4.84660         0.000283     -0.000339     -0.000226
      1.25331      8.41568      5.84907        -0.000129      0.000077     -0.000307
      1.13211      1.32849      3.70911         0.000199      0.000449      0.000031
      8.40927      8.69765      3.57711         0.000470      0.000306      0.000075
      8.45290      1.05778      6.15445        -0.000029     -0.000267      0.000029
      8.29872      6.06918      0.98567        -0.000201     -0.000194     -0.000471
      8.59517      3.57127      8.40646         0.000027     -0.000049     -0.000419
      1.29030      5.96087      8.55504         0.000061     -0.000213      0.000271
      0.94213      3.64092      1.32711        -0.000372      0.000157     -0.000174
      6.04404      1.28798      8.55567        -0.000169      0.000060      0.000299
      6.05372      8.71119      1.36887        -0.000180      0.000049      0.000039
      3.53502      1.17667      1.23142        -0.000157      0.000043     -0.000051
      3.89744      8.42520      8.51821         0.000107      0.000173      0.000026
      5.98305      6.16295      3.70031        -0.000119      0.000150      0.000207
      6.00811      3.67515      5.92689        -0.000184     -0.000190     -0.000430
      3.60206      5.99108      6.15743         0.000209     -0.000212      0.000313
      3.46467      3.94184      3.65918        -0.000177      0.000518      0.000125
      7.25905      7.27608      7.26717         0.000034     -0.000068     -0.000011
      7.21230      2.56059      2.48361        -0.000039      0.000009      0.000013
      2.37060      7.30777      2.32869         0.000131      0.000001     -0.000133
      2.41661      2.30344      7.27087        -0.000026      0.000058     -0.000019
      0.02843      9.39843      9.62132         0.000012      0.000019     -0.000058
      9.37268      5.01398      4.91790         0.000065     -0.000019      0.000014
      4.63752      0.24356      4.88844        -0.000007      0.000010      0.000040
      4.65417      4.56136      0.10573         0.000015      0.000280      0.000086
    total drift:                               -0.005495      0.011328     -0.006986

  FREE ENERGIE OF THE ION-ELECTRON SYSTEM (eV)
  free  energy   TOTEN  =      -272.25532565 eV

  energy  without entropy=     -272.25532565  energy(sigma->0) =     -272.25532565

 d Force = 0.1155859E-05[ 0.640E-06, 0.167E-05]  d Energy = 0.1923550E-05-0.768E-06
 d Force =-0.2481535E-02[-0.248E-02,-0.248E-02]  d Ewald  =-0.2481535E-02-0.909E-11

 stress matrix after NEB project (eV)
     -2.01841      1.19816     -1.04802
      1.19816     -0.10625     -1.91304
     -1.04802     -1.91305      1.87431
  FORCES: max atom, RMS     0.000990    0.000405
  FORCE total and by dimension    0.002922    0.000895
  Stress total and by dimension    4.470528    2.018406
 Conjugate gradient step on ions:
 trial-energy change:   -0.000002  1 .order   -0.000001   -0.000002   -0.000001
  (g-gl).g = 0.832E-06      g.g   = 0.104E-05  gl.gl    = 0.198E-05
 g(Force)  = 0.104E-05   g(Stress)= 0.000E+00 ortho     = 0.176E-06
 gamma     =   0.41954
 trial     =   1.50733
 opt step  =   2.44122  (harmonic =   2.44122) maximal distance =0.00010784
 next E    =  -272.255325   (d E  =  -0.00000)

 reached required accuracy - stopping structural energy minimisation