 vasp.6.4.1 05Apr23 (build Jun 07 2023 15:38:11) complex

 executed on             LinuxIFC date 2023.10.16  15:37:57

 INCAR:
   GGA = PE
   PREC = Accu
   EDIFF = 1.e-6
   EDIFFG = -1.e-3
   ENCUT = 520.
   NELM = 100
   NELMDL = -10
   LASPH = .TRUE.
   LREAL = Auto
   LMAXMIX = 4
   ISPIN = 2
   LDIAG = .TRUE.
   LPLANE = .TRUE.
   IVDW = 12
   SIGMA = 0.03
   ISMEAR = 0
   NSW = 1000    number of steps for IOM
   IBRION = 2    ionic relax: 0-MD 1-quasi-New 2-CG
   ISIF = 2    ionic relaxation + stress tensor calcn.
   LCHARG = .FALSE.
   LWAVE = .FALSE.
   ALGO = F
   KPAR = 1
   NPAR = 4
   POTIM = 0.2

 POTCAR:    PAW_PBE Li_sv_GW 25Mar2010
 POTCAR:    PAW_PBE P_GW 19Mar2012
 POTCAR:    PAW_PBE S_GW 19Mar2012
 POTCAR:    PAW_PBE Cl_GW 19Mar2012
|           W    W    AA    RRRRR   N    N  II  N    N   GGGG   !!!           |
|           W    W   A  A   R    R  NN   N  II  NN   N  G    G  !!!           |
|           W    W  A    A  R    R  N N  N  II  N N  N  G       !!!           |
|           W WW W  AAAAAA  RRRRR   N  N N  II  N  N N  G  GGG   !            |
|           WW  WW  A    A  R   R   N   NN  II  N   NN  G    G                |
|           W    W  A    A  R    R  N    N  II  N    N   GGGG   !!!           |
|     You use a magnetic or noncollinear calculation, but did not specify     |
|     the initial magnetic moment with the MAGMOM tag. Note that a            |
|     default of 1 will be used for all atoms. This ferromagnetic setup       |
|     may break the symmetry of the crystal, in particular it may rule        |
|     out finding an antiferromagnetic solution. Thence, we recommend         |
|     setting the initial magnetic moment manually or verifying carefully     |
|     that this magnetic setup is desired.                                    |

   TITEL  = PAW_PBE Li_sv_GW 25Mar2010
   POMASS =    7.010; ZVAL   =    3.000    mass and valenz
   ENMAX  =  433.699; ENMIN  =  325.274 eV

   TITEL  = PAW_PBE P_GW 19Mar2012
   POMASS =   30.974; ZVAL   =    5.000    mass and valenz
   ENMAX  =  255.040; ENMIN  =  191.280 eV

[...]

   TITEL  = PAW_PBE Cl_GW 19Mar2012
   POMASS =   35.453; ZVAL   =    7.000    mass and valenz
   ENMAX  =  262.472; ENMIN  =  196.854 eV

 Optimization of the real space projectors (new method)

 maximal supplied QI-value         = 25.13
 optimisation between [QCUT,QGAM] = [ 11.56, 23.12] = [ 37.43,149.72] Ry
 Optimized for a Real-space Cutoff    1.28 Angstroem

   l    n(q)    QCUT    max X(q) W(low)/X(q) W(high)/X(q)  e(spline)
   0      9    11.561    87.733    0.11E-03    0.32E-04    0.56E-06
   0      9    11.561    82.800    0.11E-03    0.35E-04    0.56E-06
   0      9    11.561     2.509    0.22E-03    0.42E-04    0.79E-06
   1      8    11.561    12.580    0.94E-04    0.26E-03    0.21E-06
   1      8    11.561     1.319    0.33E-04    0.15E-03    0.19E-06
   2      8    11.561     1.993    0.36E-04    0.89E-04    0.26E-06
 Optimization of the real space projectors (new method)

[...]

   l    n(q)    QCUT    max X(q) W(low)/X(q) W(high)/X(q)  e(spline)
   0     10    11.508     7.541    0.34E-04    0.13E-04    0.69E-07
   0     10    11.508     1.809    0.49E-04    0.27E-04    0.14E-06
   1     10    11.508     4.107    0.27E-05    0.41E-05    0.14E-06
   1     10    11.508     2.196    0.26E-05    0.25E-05    0.22E-06
   2      9    11.508     4.265    0.18E-03    0.11E-03    0.81E-06
   2      9    11.508     1.925    0.97E-04    0.76E-04    0.47E-06
 Optimization of the real space projectors (new method)

 maximal supplied QI-value         = 19.84
 optimisation between [QCUT,QGAM] = [ 11.51, 23.22] = [ 37.09,150.92] Ry
 Optimized for a Real-space Cutoff    1.21 Angstroem

   l    n(q)    QCUT    max X(q) W(low)/X(q) W(high)/X(q)  e(spline)
   0      8    11.508     6.761    0.57E-04    0.57E-04    0.35E-07
   0      8    11.508     1.642    0.14E-03    0.14E-03    0.91E-07
   1      8    11.508     3.519    0.20E-04    0.72E-04    0.47E-07
   1      8    11.508     2.150    0.27E-04    0.11E-03    0.89E-07
   2      7    11.508     2.976    0.19E-03    0.33E-03    0.16E-06
   2      7    11.508     1.494    0.14E-03    0.29E-03    0.14E-06
  PAW_PBE Li_sv_GW 25Mar2010            :
  PAW_PBE P_GW 19Mar2012                :
  PAW_PBE S_GW 19Mar2012                :
  PAW_PBE Cl_GW 19Mar2012               :

 POSCAR: Li24 P4 S20 Cl4
  positions in direct lattice
  velocities in cartesian coordinates
 exchange correlation table for  LEXCH =        8
   RHO(1)=    0.500       N(1)  =     2000
   RHO(2)=  100.500       N(2)  =     4000

 VTST: version 4.1, (05/19/21)

 CHAIN: initializing optimizer

 OPT: Using VASP Conjugate-Gradient optimizer
 CHAIN: Read ICHAIN            0

 POSCAR: Li24 P4 S20 Cl4
  positions in direct lattice
  velocities in cartesian coordinates

 ion  position               nearest neighbor table
   1  0.962  0.330  0.314-
   2  0.963  0.844  0.814-
   3  0.018  0.272  0.707-
   4  0.023  0.771  0.166-
   5  0.469  0.318  0.839-
   6  0.311  0.712  0.015-
   7  0.830  0.192  0.031-
   8  0.705  0.692  0.989-
   9  0.207  0.970  0.212-
  10  0.176  0.167  0.959-
  11  0.663  0.964  0.721-
  12  0.810  0.999  0.222-
  13  0.147  0.682  0.458-
  14  0.219  0.293  0.515-
  15  0.709  0.784  0.523-
  16  0.715  0.202  0.495-
  17  0.211  0.487  0.730-
  18  0.308  0.506  0.195-
  19  0.656  0.438  0.186-
  20  0.822  0.529  0.676-
  21  0.330  0.034  0.663-
  22  0.461  0.797  0.334-
  23  0.526  0.148  0.300-
  24  0.520  0.673  0.782-
  25  0.503  0.490  0.497-  41 2.05  42 2.05  43 2.06  44 2.06
  26  0.504  0.999  0.002-  37 2.05  39 2.05  38 2.06  40 2.06
  27  0.995  0.491  0.004-  34 2.05  36 2.05  33 2.05  35 2.06
  28  0.007  0.983  0.508-  29 2.04  30 2.05  31 2.06  32 2.06
  29  0.140  0.871  0.629-  28 2.04
  30  0.112  0.119  0.382-  28 2.05
  31  0.902  0.842  0.386-  28 2.06
  32  0.876  0.087  0.640-  28 2.06
  33  0.867  0.587  0.144-  27 2.05
  34  0.872  0.377  0.874-  27 2.05
  35  0.105  0.636  0.893-  27 2.06
  36  0.121  0.360  0.115-  27 2.05
  37  0.631  0.130  0.894-  26 2.05
  38  0.612  0.873  0.135-  26 2.06
  39  0.370  0.122  0.113-  26 2.05
  40  0.393  0.884  0.861-  26 2.06
  41  0.628  0.608  0.374-  25 2.05
  42  0.618  0.381  0.638-  25 2.05
  43  0.368  0.622  0.596-  25 2.06
  44  0.398  0.357  0.367-  25 2.06
  45  0.748  0.743  0.757-
  46  0.751  0.228  0.259-
  47  0.248  0.736  0.243-
  48  0.253  0.251  0.747-
  49  0.996  0.989  0.030-
  50  0.022  0.464  0.526-
  51  0.530  0.988  0.502-
  52  0.490  0.523  0.996-

  LATTYP: Found a simple cubic cell.
 ALAT       =     9.6534726701

  Lattice vectors:

 A1 = (   9.6534726701,   0.0000000000,   0.0000000000)
 A2 = (   0.0000000000,   9.6534726701,   0.0000000000)
 A3 = (   0.0000000000,   0.0000000000,   9.6534726701)

Analysis of symmetry for initial positions (statically):
 Subroutine PRICEL returns:
 Original cell was already a primitive cell.

 Routine SETGRP: Setting up the symmetry group for a
 simple cubic supercell.

 Subroutine GETGRP returns: Found  1 space group operations
 (whereof  1 operations were pure point group operations)
 out of a pool of 48 trial point group operations.

The static configuration has the point symmetry C_1 .

Analysis of symmetry for dynamics (positions and initial velocities):
 Subroutine PRICEL returns:
 Original cell was already a primitive cell.

[...]

The dynamic configuration has the point symmetry C_1 .

Analysis of structural, dynamic, and magnetic symmetry:
 Subroutine PRICEL returns:
 Original cell was already a primitive cell.

 Routine SETGRP: Setting up the symmetry group for a
 simple cubic supercell.

 Subroutine GETGRP returns: Found  1 space group operations
 (whereof  1 operations were pure point group operations)
 out of a pool of 48 trial point group operations.

The overall configuration has the point symmetry C_1 .

 Subroutine INISYM returns: Found  1 space group operations
 (whereof  1 operations are pure point group operations),
 and found     1 'primitive' translations

                                     Primitive cell

  volume of cell :     899.6026

  direct lattice vectors                    reciprocal lattice vectors
     9.653472670  0.000000000  0.000000000     0.103589665  0.000000000  0.000000000
     0.000000000  9.653472670  0.000000000     0.000000000  0.103589665  0.000000000
     0.000000000  0.000000000  9.653472670     0.000000000  0.000000000  0.103589665

  length of vectors
     9.653472670  9.653472670  9.653472670     0.103589665  0.103589665  0.103589665

  position of ions in fractional coordinates (direct lattice)
     0.962323476  0.330422959  0.313676493
     0.962865007  0.844169580  0.813926966
     0.017565176  0.271652025  0.707198349
     0.023231312  0.770875111  0.166453221
     0.468763521  0.317824060  0.839369074
     0.310814884  0.712210470  0.014622243
     0.829528056  0.191814355  0.031206800
     0.704981499  0.691928253  0.988744885
     0.207495648  0.970121837  0.211702907
     0.176429097  0.167110435  0.959290103
     0.662961936  0.964236216  0.721437662
     0.810044449  0.999015304  0.222317893
     0.146932236  0.681977269  0.457673174
     0.219247416  0.293475824  0.514608441
     0.709210432  0.783501852  0.523453713
     0.715396773  0.202234876  0.494699412
     0.211316506  0.486715256  0.729528292
     0.307827244  0.505624975  0.194712358
     0.656413662  0.438113454  0.186172429
     0.821749260  0.529102289  0.676126792
     0.329834879  0.033821453  0.663219229
     0.461235499  0.796557128  0.333524114
     0.526370189  0.147564038  0.300063978
     0.520097910  0.673416403  0.782419862
     0.502564680  0.489744904  0.497265155
     0.503631265  0.998933718  0.001656383
     0.995031737  0.490902211  0.004152508
     0.007485748  0.982917083  0.507617442
     0.139594985  0.871330519  0.629052661
     0.111681981  0.118829753  0.382038955
     0.902363259  0.842213057  0.386053048
     0.875592876  0.087146637  0.639570482
     0.866650086  0.586817782  0.144043074
     0.872474762  0.376537246  0.873846224
     0.104892505  0.635691100  0.892660840
     0.120633240  0.359967111  0.114686048
     0.630772356  0.130162205  0.894003939
     0.611641763  0.872515867  0.134685477
     0.370407584  0.121808949  0.112988745
     0.392949584  0.883639522  0.860776040
     0.628207047  0.608038158  0.373905262
     0.617795613  0.380824917  0.638363364
     0.368435901  0.622278259  0.596423238
     0.398455881  0.356556813  0.367402682
     0.747685124  0.742878250  0.756990170
     0.750793222  0.227525482  0.258975307
     0.247783280  0.736353114  0.242904832
     0.252943817  0.250532716  0.746897727
     0.995808841  0.989086694  0.030365724
     0.021913055  0.464350746  0.526374901
     0.529744872  0.988057422  0.501984292
     0.490070863  0.523470553  0.995617363

  ion indices of the primitive-cell ions
   primitive index   ion index
                 1           1
                 2           2
                 3           3
                 4           4
                 5           5
                 6           6
                 7           7
                 8           8
[...]
     17     -42.3345      1.00000
     18     -42.3283      1.00000
     19     -42.3063      1.00000
     20     -42.2959      1.00000
     21     -42.2876      1.00000
     22     -42.2702      1.00000
     23     -42.2667      1.00000
     24     -42.2070      1.00000
     25     -13.0084      1.00000
     26     -12.9723      1.00000
     27     -12.9587      1.00000
     28     -12.9501      1.00000
     29     -12.6321      1.00000
     30     -12.6201      1.00000
     31     -12.6148      1.00000
     32     -12.6067      1.00000
     33     -10.2494      1.00000
     34     -10.2425      1.00000
     35     -10.2050      1.00000
     36     -10.0618      1.00000
     37     -10.0309      1.00000
     38     -10.0103      1.00000
     39      -9.9878      1.00000
     40      -9.9629      1.00000
     41      -9.9449      1.00000
     42      -9.9033      1.00000
     43      -9.8641      1.00000
     44      -9.8384      1.00000
     45      -8.3086      1.00000
     46      -8.2920      1.00000
     47      -8.2633      1.00000
     48      -8.2407      1.00000
     49      -6.0908      1.00000
     50      -5.6930      1.00000
     51      -5.6349      1.00000
     52      -5.5772      1.00000
     53      -3.1972      1.00000
     54      -3.1849      1.00000
     55      -3.1472      1.00000
     56      -2.7932      1.00000
     57      -2.7315      1.00000
     58      -2.6682      1.00000
     59      -2.5693      1.00000
     60      -2.4932      1.00000
[...]
    162       9.1873      0.00000
    163       9.2663      0.00000
    164       9.3273      0.00000
    165       9.3593      0.00000
    166       9.4349      0.00000
    167       9.4560      0.00000
    168       9.5000      0.00000
    169       9.5439      0.00000
    170       9.5910      0.00000
    171       9.6242      0.00000
    172       9.6952      0.00000
    173       9.7517      0.00000
    174       9.8205      0.00000
    175       9.8800      0.00000
    176      10.1113      0.00000

[...]

 soft charge-density along one line, spin component           2
         0         1         2         3         4         5         6         7         8         9
 total charge-density along one line

------------------------ aborting loop because EDIFF is reached ----------------------------------------

         DFTD3 V3.0 Rev 1
 Edisp (eV)  -13.60038

 E6    (eV) :    -8.3820
 E8    (eV) :    -5.2184
 % E8        : 38.37

  FORCE on cell =-STRESS in cart. coord.  units (eV):
  Direction    XX          YY          ZZ          XY          YZ          ZX
  Alpha Z   301.75268   301.75268   301.75268
  Ewald   -3011.81925 -2926.31922 -2894.90871    19.40599    -0.08673   -18.04900
  Hartree   706.26326   739.23733   754.06969    11.03119     3.33167   -11.78751
  E(xc)    -947.98146  -947.74139  -947.68116     0.00126    -0.01775    -0.03912
  Local   -1411.35303 -1519.29093 -1562.52087   -29.85149    -5.39196    29.73148
  n-local  1482.07414  1481.54376  1481.37777     0.42631     0.09789    -0.01541
  augment  -357.49939  -356.71150  -356.59259    -0.09941    -0.13909    -0.09265
  Kinetic  3253.52531  3241.17889  3238.96189     0.56675     3.13228     1.08663
  Fock        0.00000     0.00000     0.00000     0.00000     0.00000     0.00000
  vdW       -14.39509   -14.43108   -14.42710    -0.02255    -0.05724     0.02510
  Total       0.56716    -0.78146     0.03160     1.45805     0.86907     0.85952
  in kB       1.01011    -1.39177     0.05628     2.59676     1.54780     1.53080

 VOLUME and BASIS-vectors are now :
  energy-cutoff  :      520.00
  volume of cell :      899.60
      direct lattice vectors                 reciprocal lattice vectors
     9.653472670  0.000000000  0.000000000     0.103589665  0.000000000  0.000000000
     0.000000000  9.653472670  0.000000000     0.000000000  0.103589665  0.000000000
     0.000000000  0.000000000  9.653472670     0.000000000  0.000000000  0.103589665

  length of vectors
     9.653472670  9.653472670  9.653472670     0.103589665  0.103589665  0.103589665

 FORCES acting on ions
    electron-ion (+dipol)            ewald-force                    non-local-force                 convergence-correction
   0.996E+00 -.142E+02 -.764E+01   -.207E+01 0.128E+02 0.666E+01   0.107E+01 0.136E+01 0.977E+00   -.281E-04 0.439E-04 0.592E-04
   -.462E+01 -.732E+01 -.755E+01   0.380E+01 0.606E+01 0.666E+01   0.821E+00 0.127E+01 0.891E+00   -.135E-04 0.547E-04 0.714E-05
   0.656E+01 0.772E+01 -.385E+01   -.586E+01 -.834E+01 0.488E+01   -.693E+00 0.625E+00 -.104E+01   -.933E-05 -.134E-05 -.499E-05
   0.516E+01 -.794E+00 0.409E+01   -.413E+01 -.358E+00 -.290E+01   -.103E+01 0.115E+01 -.120E+01   -.137E-04 0.349E-04 -.208E-04
   0.298E-01 -.403E+01 -.991E+01   -.660E+00 0.310E+01 0.868E+01   0.626E+00 0.925E+00 0.123E+01   -.111E-04 -.352E-04 0.528E-04
   0.129E+01 -.763E-01 0.651E+01   -.228E+01 0.856E+00 -.547E+01   0.993E+00 -.782E+00 -.103E+01   0.598E-04 0.841E-04 -.996E-05
   -.557E+01 0.211E+01 0.602E+01   0.411E+01 -.126E+01 -.545E+01   0.146E+01 -.843E+00 -.561E+00   0.468E-04 0.448E-04 -.152E-05
   -.391E+01 0.180E+01 -.280E+01   0.476E+01 -.101E+01 0.216E+01   -.851E+00 -.800E+00 0.644E+00   0.477E-04 -.581E-04 0.101E-04
   -.453E+01 -.339E+01 -.204E+01   0.560E+01 0.282E+01 0.270E+01   -.107E+01 0.569E+00 -.668E+00   0.577E-05 0.161E-04 0.398E-04
   0.667E+01 0.106E+02 0.750E+01   -.540E+01 -.909E+01 -.822E+01   -.127E+01 -.153E+01 0.717E+00   -.108E-04 -.105E-03 -.739E-04
   0.358E+01 -.615E+01 0.139E+01   -.244E+01 0.535E+01 -.196E+00   -.115E+01 0.792E+00 -.120E+01   -.226E-04 -.164E-04 -.548E-04
   -.142E+00 0.509E+01 0.272E+01   -.785E+00 -.417E+01 -.175E+01   0.929E+00 -.920E+00 -.971E+00   0.221E-04 -.879E-05 -.132E-04
   0.926E+01 0.993E+01 0.640E+00   -.803E+01 -.885E+01 -.153E+01   -.123E+01 -.107E+01 0.893E+00   -.525E-04 -.439E-04 0.906E-05
   -.720E+01 0.374E+01 0.904E+01   0.808E+01 -.474E+01 -.834E+01   -.885E+00 0.100E+01 -.699E+00   -.857E-04 -.325E-04 0.429E-04
   -.153E+00 0.262E+01 0.380E+01   0.123E+01 -.385E+01 -.313E+01   -.109E+01 0.123E+01 -.670E+00   -.103E-04 -.248E-04 -.425E-04
   0.201E+01 -.688E+01 -.562E+01   -.100E+01 0.739E+01 0.484E+01   -.101E+01 -.519E+00 0.780E+00   0.272E-04 -.153E-04 0.103E-04
   -.384E+01 -.916E+01 -.827E+01   0.459E+01 0.840E+01 0.860E+01   -.747E+00 0.764E+00 -.333E+00   -.411E-04 0.858E-05 -.141E-04
   -.202E+01 0.808E+01 0.208E+01   0.107E+01 -.758E+01 -.994E+00   0.951E+00 -.502E+00 -.108E+01   0.410E-05 0.610E-04 -.217E-04
   0.886E+01 0.559E+01 0.124E+02   -.740E+01 -.651E+01 -.110E+02   -.146E+01 0.917E+00 -.140E+01   0.222E-04 0.927E-05 -.129E-04
   -.704E+01 -.399E+01 0.150E+02   0.574E+01 0.492E+01 -.137E+02   0.130E+01 -.927E+00 -.134E+01   0.431E-04 0.233E-04 -.700E-04
   -.531E+01 -.331E+01 0.108E+02   0.408E+01 0.382E+01 -.964E+01   0.123E+01 -.505E+00 -.119E+01   -.202E-05 0.404E-04 -.493E-04
   0.617E+01 -.106E+02 -.789E+01   -.714E+01 0.939E+01 0.649E+01   0.965E+00 0.117E+01 0.141E+01   0.377E-04 -.109E-04 0.678E-04
   0.105E+02 0.414E+01 -.627E+01   -.960E+01 -.281E+01 0.527E+01   -.914E+00 -.134E+01 0.998E+00   0.102E-04 -.786E-04 0.287E-04
   0.630E+01 0.741E+01 0.353E-01   -.517E+01 -.625E+01 -.101E+01   -.112E+01 -.116E+01 0.974E+00   0.295E-05 -.996E-05 0.141E-04
   -.136E+01 0.751E+01 -.323E+01   0.168E+01 -.738E+01 0.325E+01   -.318E+00 -.128E+00 -.201E-01   0.644E-04 0.216E-04 -.146E-04
   0.149E+01 -.196E+01 -.110E+01   -.130E+01 0.230E+01 0.984E+00   -.195E+00 -.332E+00 0.117E+00   0.602E-05 0.251E-05 0.103E-04
   -.577E+01 -.179E+01 0.158E+01   0.555E+01 0.161E+01 -.127E+01   0.224E+00 0.185E+00 -.304E+00   -.749E-04 0.340E-04 -.532E-04
   -.454E+01 -.186E+01 -.228E+01   0.515E+01 0.149E+01 0.254E+01   -.603E+00 0.356E+00 -.259E+00   0.161E-04 0.755E-04 -.229E-04
   -.497E+02 0.364E+02 -.460E+02   0.528E+02 -.390E+02 0.489E+02   -.304E+01 0.261E+01 -.285E+01   0.116E-03 0.350E-04 0.419E-04
   -.428E+02 -.359E+02 0.387E+02   0.455E+02 0.390E+02 -.425E+02   -.267E+01 -.307E+01 0.379E+01   0.564E-04 0.217E-04 0.450E-04
   0.275E+02 0.638E+02 0.254E+02   -.298E+02 -.682E+02 -.276E+02   0.233E+01 0.436E+01 0.221E+01   -.184E-05 -.723E-04 0.422E-04
   0.310E+02 -.287E+02 -.523E+02   -.337E+02 0.310E+02 0.565E+02   0.272E+01 -.228E+01 -.421E+01   0.284E-04 0.170E-04 0.372E-04
   0.359E+02 -.217E+02 -.624E+02   -.383E+02 0.233E+02 0.667E+02   0.238E+01 -.156E+01 -.429E+01   -.171E-03 -.328E-04 0.140E-03
   0.546E+02 0.313E+02 0.334E+02   -.586E+02 -.336E+02 -.359E+02   0.403E+01 0.239E+01 0.244E+01   -.111E-03 -.594E-04 -.481E-04
   -.289E+02 -.509E+02 0.413E+02   0.311E+02 0.548E+02 -.446E+02   -.217E+01 -.393E+01 0.338E+01   -.183E-03 0.783E-04 -.198E-04
   -.473E+02 0.391E+02 -.362E+02   0.503E+02 -.425E+02 0.389E+02   -.305E+01 0.343E+01 -.261E+01   -.466E-05 -.740E-04 0.209E-04
   -.379E+02 -.541E+02 0.309E+02   0.409E+02 0.575E+02 -.335E+02   -.297E+01 -.341E+01 0.260E+01   0.352E-04 0.464E-04 0.906E-04
   -.326E+02 0.399E+02 -.399E+02   0.351E+02 -.436E+02 0.434E+02   -.247E+01 0.367E+01 -.351E+01   -.825E-04 -.120E-04 0.234E-04
   0.362E+02 -.558E+02 -.291E+02   -.387E+02 0.598E+02 0.314E+02   0.245E+01 -.396E+01 -.229E+01   -.113E-03 -.658E-05 0.188E-04
   0.538E+02 0.220E+02 0.483E+02   -.573E+02 -.239E+02 -.519E+02   0.348E+01 0.196E+01 0.362E+01   -.170E-03 0.329E-04 -.126E-03
   -.573E+02 -.235E+02 0.392E+02   0.607E+02 0.255E+02 -.424E+02   -.336E+01 -.201E+01 0.318E+01   0.272E-03 0.114E-03 -.120E-03
   -.330E+02 0.400E+02 -.448E+02   0.357E+02 -.426E+02 0.487E+02   -.268E+01 0.262E+01 -.393E+01   0.588E-04 0.930E-05 -.172E-04
   0.423E+02 -.532E+02 -.231E+02   -.452E+02 0.577E+02 0.246E+02   0.287E+01 -.452E+01 -.149E+01   -.805E-04 0.106E-03 -.759E-04
   0.298E+02 0.461E+02 0.422E+02   -.322E+02 -.494E+02 -.456E+02   0.242E+01 0.333E+01 0.341E+01   0.129E-03 -.747E-05 0.536E-04
   -.227E+02 0.645E+01 -.448E+01   0.233E+02 -.655E+01 0.466E+01   -.582E+00 0.106E+00 -.184E+00   0.135E-03 -.572E-04 -.840E-05
   -.189E+00 -.177E+02 -.890E+00   0.225E+00 0.181E+02 0.856E+00   -.390E-01 -.315E+00 0.339E-01   -.592E-05 0.164E-03 0.435E-05
   -.368E+01 0.415E+01 -.179E+02   0.379E+01 -.432E+01 0.183E+02   -.120E+00 0.168E+00 -.474E+00   0.227E-05 0.565E-04 0.143E-03
   -.204E+02 0.175E+02 -.151E+02   0.209E+02 -.178E+02 0.154E+02   -.509E+00 0.313E+00 -.322E+00   0.215E-04 -.240E-03 0.322E-04
   -.422E+01 -.943E+00 0.331E+02   0.423E+01 0.935E+00 -.336E+02   -.994E-02 0.834E-02 0.561E+00   0.123E-03 0.133E-04 -.287E-03
   0.299E+02 -.325E+02 0.297E+02   -.305E+02 0.331E+02 -.303E+02   0.554E+00 -.647E+00 0.539E+00   -.317E-03 0.391E-03 -.173E-03
   0.330E+02 -.757E+01 0.242E+01   -.335E+02 0.764E+01 -.247E+01   0.463E+00 -.711E-01 0.466E-01   -.322E-03 -.608E-05 -.358E-04
   -.115E+01 0.342E+02 -.285E+01   0.120E+01 -.348E+02 0.293E+01   -.535E-01 0.563E+00 -.801E-01   0.172E-03 -.301E-03 0.659E-04
   0.507E+01 -.703E+00 0.477E+01   0.173E-12 -.284E-13 -.364E-13   -.509E+01 0.711E+00 -.476E+01   -.373E-03 0.331E-03 -.280E-03

 POSITION                                       TOTAL-FORCE (eV/Angst)
      9.28976      3.18975      3.02807        -0.000061      0.000710      0.000021
      9.29499      8.14919      7.85722        -0.000154      0.000776     -0.000185
      0.16956      2.62240      6.82691        -0.000084      0.000256     -0.000192
      0.22426      7.44163      1.60683        -0.000051      0.000205     -0.000634
      4.52520      3.06810      8.10284         0.000101     -0.000308      0.000387
      3.00045      6.87531      0.14116         0.000295      0.000150      0.000008
      8.00785      1.85168      0.30126         0.000691      0.000061      0.000222
      6.80552      6.67950      9.54483         0.000009     -0.000252      0.000200
      2.00306      9.36505      2.04368         0.000086      0.000036      0.000314
      1.70315      1.61318      9.26048        -0.000145     -0.000432     -0.000061
      6.39986      9.30822      6.96438        -0.000818     -0.000172     -0.000068
      7.81974      9.64396      2.14613        -0.000034     -0.000261     -0.000344
      1.41838      6.58345      4.41814        -0.000832      0.000034     -0.000049
      2.11649      2.83309      4.96776        -0.000373      0.000909     -0.000055
      6.84635      7.56352      5.05315         0.000096      0.000142     -0.000004
      6.90606      1.95226      4.77558         0.000030     -0.000168      0.000218
      2.03995      4.69850      7.04251         0.000347      0.000222      0.000744
      2.97161      4.88103      1.87964         0.000148     -0.000091     -0.000189
      6.33666      4.22932      1.79721        -0.000422     -0.000069     -0.000124
      7.93273      5.10767      6.52696        -0.000053     -0.000198     -0.000327
      3.18406      0.32650      6.40236         0.000063      0.000164     -0.000418
      4.45253      7.68953      3.21969         0.000058     -0.000260      0.000598
      5.08130      1.42449      2.89666        -0.000049     -0.000454      0.000146
      5.02075      6.50079      7.55307        -0.000049     -0.000357      0.000102
      4.85151      4.72775      4.80033         0.000025      0.000012     -0.000042
      4.86179      9.64318      0.01598         0.000355     -0.000028     -0.000209
      9.60550      4.73891      0.04008        -0.000176      0.000002     -0.000189
      0.07227      9.48857      4.90027         0.000176      0.000193     -0.000047
      1.34757      8.41137      6.07254         0.000075      0.000030     -0.000037
      1.07811      1.14712      3.68801        -0.000161      0.000330     -0.000003
      8.71096      8.13027      3.72675         0.000370     -0.000082     -0.000141
      8.45252      0.84125      6.17409         0.000024     -0.000375      0.000325
      8.36619      5.66481      1.39052         0.000162     -0.000370      0.000373
      8.42241      3.63491      8.43566        -0.000295      0.000229     -0.000107
      1.01257      6.13664      8.61728        -0.000208      0.000406      0.000139
      1.16453      3.47493      1.10711        -0.000040     -0.000064     -0.000326
      6.08916      1.25652      8.63025         0.000659     -0.000047      0.000146
      5.90446      8.42280      1.30018        -0.000236     -0.000308      0.000105
      3.57573      1.17588      1.09072         0.000242      0.000102     -0.000302
      3.79335      8.53021      8.30947         0.000436      0.000214     -0.000321
      6.06437      5.86966      3.60950         0.000228     -0.000263      0.000136
      5.96386      3.67628      6.16243        -0.000362     -0.000144      0.000198
      3.55668      6.00715      5.75754        -0.000125      0.000086     -0.000390
      3.84649      3.44200      3.54671         0.000046     -0.000230     -0.000047
      7.21776      7.17135      7.30759        -0.000103     -0.000058      0.000050
      7.24776      2.19641      2.50001         0.000047     -0.000261      0.000127
      2.39197      7.10836      2.34488        -0.000001     -0.000023     -0.000075
      2.44179      2.41851      7.21016        -0.000109      0.000213     -0.000152
      9.61302      9.54813      0.29312        -0.000016      0.000023      0.000353
      0.21151      4.48262      5.08133         0.000044     -0.000411      0.000275
      5.11387      9.53818      4.84589         0.000348     -0.000172     -0.000048
      4.73088      5.05329      9.61117        -0.000205      0.000353     -0.000102
    total drift:                               -0.015833      0.007841      0.011947

  FREE ENERGIE OF THE ION-ELECTRON SYSTEM (eV)
  free  energy   TOTEN  =      -272.46080056 eV

  energy  without entropy=     -272.46080056  energy(sigma->0) =     -272.46080056

 d Force = 0.6231996E-06[ 0.349E-06, 0.897E-06]  d Energy = 0.1274696E-05-0.651E-06
 d Force =-0.7344317E-03[-0.735E-03,-0.734E-03]  d Ewald  =-0.7344317E-03-0.364E-11

 stress matrix after NEB project (eV)
      0.56716      1.45805      0.85952
      1.45805     -0.78146      0.86907
      0.85952      0.86907      0.03160
  FORCES: max atom, RMS     0.000984    0.000482
  FORCE total and by dimension    0.003475    0.000909
  Stress total and by dimension    2.858901    1.458051
 Steepest descent step on ions:
 trial-energy change:   -0.000001  1 .order   -0.000001   -0.000001   -0.000000
  (g-gl).g = 0.897E-06      g.g   = 0.897E-06  gl.gl    = 0.000E+00
 g(Force)  = 0.897E-06   g(Stress)= 0.000E+00 ortho     = 0.000E+00
 gamma     =   0.00000
 trial     =   1.00000
 opt step  =   1.63741  (harmonic =   1.63741) maximal distance =0.00004774
 next E    =  -272.460800   (d E  =  -0.00000)

 reached required accuracy - stopping structural energy minimisation