 vasp.6.4.1 05Apr23 (build Jun 07 2023 15:38:11) complex

 executed on             LinuxIFC date 2023.10.30  11:54:41

 INCAR:
   GGA = PE
   PREC = Accu
   EDIFF = 1.e-6
   EDIFFG = -1.e-3
   ENCUT = 520.
   NELM = 100
   NELMDL = -10
   LASPH = .TRUE.
   LREAL = Auto
   LMAXMIX = 4
   ISPIN = 2
   LDIAG = .TRUE.
   LPLANE = .TRUE.
   IVDW = 12
   SIGMA = 0.03
   ISMEAR = 0
   NSW = 1000    number of steps for IOM
   IBRION = 2    ionic relax: 0-MD 1-quasi-New 2-CG
   ISIF = 2    ionic relaxation + stress tensor calcn.
   LCHARG = .FALSE.
   LWAVE = .FALSE.
   ALGO = F
   KPAR = 1
   NPAR = 4
   POTIM = 0.2

 POTCAR:    PAW_PBE Li_sv_GW 25Mar2010
 POTCAR:    PAW_PBE P_GW 19Mar2012
 POTCAR:    PAW_PBE S_GW 19Mar2012
 POTCAR:    PAW_PBE Cl_GW 19Mar2012
|           W    W    AA    RRRRR   N    N  II  N    N   GGGG   !!!           |
|           W    W   A  A   R    R  NN   N  II  NN   N  G    G  !!!           |
|           W    W  A    A  R    R  N N  N  II  N N  N  G       !!!           |
|           W WW W  AAAAAA  RRRRR   N  N N  II  N  N N  G  GGG   !            |
|           WW  WW  A    A  R   R   N   NN  II  N   NN  G    G                |
|           W    W  A    A  R    R  N    N  II  N    N   GGGG   !!!           |
|     You use a magnetic or noncollinear calculation, but did not specify     |
|     the initial magnetic moment with the MAGMOM tag. Note that a            |
|     default of 1 will be used for all atoms. This ferromagnetic setup       |
|     may break the symmetry of the crystal, in particular it may rule        |
|     out finding an antiferromagnetic solution. Thence, we recommend         |
|     setting the initial magnetic moment manually or verifying carefully     |
|     that this magnetic setup is desired.                                    |

   TITEL  = PAW_PBE Li_sv_GW 25Mar2010
   POMASS =    7.010; ZVAL   =    3.000    mass and valenz
   ENMAX  =  433.699; ENMIN  =  325.274 eV

   TITEL  = PAW_PBE P_GW 19Mar2012
   POMASS =   30.974; ZVAL   =    5.000    mass and valenz
   ENMAX  =  255.040; ENMIN  =  191.280 eV

[...]

   TITEL  = PAW_PBE Cl_GW 19Mar2012
   POMASS =   35.453; ZVAL   =    7.000    mass and valenz
   ENMAX  =  262.472; ENMIN  =  196.854 eV

 Optimization of the real space projectors (new method)

 maximal supplied QI-value         = 25.13
 optimisation between [QCUT,QGAM] = [ 11.56, 23.12] = [ 37.43,149.72] Ry
 Optimized for a Real-space Cutoff    1.28 Angstroem

   l    n(q)    QCUT    max X(q) W(low)/X(q) W(high)/X(q)  e(spline)
   0      9    11.561    87.733    0.11E-03    0.32E-04    0.56E-06
   0      9    11.561    82.800    0.11E-03    0.35E-04    0.56E-06
   0      9    11.561     2.509    0.22E-03    0.42E-04    0.79E-06
   1      8    11.561    12.580    0.94E-04    0.26E-03    0.21E-06
   1      8    11.561     1.319    0.33E-04    0.15E-03    0.19E-06
   2      8    11.561     1.993    0.36E-04    0.89E-04    0.26E-06
 Optimization of the real space projectors (new method)

[...]

   l    n(q)    QCUT    max X(q) W(low)/X(q) W(high)/X(q)  e(spline)
   0     10    11.508     7.541    0.34E-04    0.13E-04    0.69E-07
   0     10    11.508     1.809    0.49E-04    0.27E-04    0.14E-06
   1     10    11.508     4.107    0.27E-05    0.41E-05    0.14E-06
   1     10    11.508     2.196    0.26E-05    0.25E-05    0.22E-06
   2      9    11.508     4.265    0.18E-03    0.11E-03    0.81E-06
   2      9    11.508     1.925    0.97E-04    0.76E-04    0.47E-06
 Optimization of the real space projectors (new method)

 maximal supplied QI-value         = 19.84
 optimisation between [QCUT,QGAM] = [ 11.51, 23.22] = [ 37.09,150.92] Ry
 Optimized for a Real-space Cutoff    1.21 Angstroem

   l    n(q)    QCUT    max X(q) W(low)/X(q) W(high)/X(q)  e(spline)
   0      8    11.508     6.761    0.57E-04    0.57E-04    0.35E-07
   0      8    11.508     1.642    0.14E-03    0.14E-03    0.91E-07
   1      8    11.508     3.519    0.20E-04    0.72E-04    0.47E-07
   1      8    11.508     2.150    0.27E-04    0.11E-03    0.89E-07
   2      7    11.508     2.976    0.19E-03    0.33E-03    0.16E-06
   2      7    11.508     1.494    0.14E-03    0.29E-03    0.14E-06
  PAW_PBE Li_sv_GW 25Mar2010            :
  PAW_PBE P_GW 19Mar2012                :
  PAW_PBE S_GW 19Mar2012                :
  PAW_PBE Cl_GW 19Mar2012               :

 POSCAR: Li24 P4 S20 Cl4
  positions in direct lattice
  velocities in cartesian coordinates
 exchange correlation table for  LEXCH =        8
   RHO(1)=    0.500       N(1)  =     2000
   RHO(2)=  100.500       N(2)  =     4000

 VTST: version 4.1, (05/19/21)

 CHAIN: initializing optimizer

 OPT: Using VASP Conjugate-Gradient optimizer
 CHAIN: Read ICHAIN            0

 POSCAR: Li24 P4 S20 Cl4
  positions in direct lattice
  velocities in cartesian coordinates

 ion  position               nearest neighbor table
   1  0.950  0.340  0.322-
   2  0.979  0.698  0.704-
   3  0.151  0.217  0.969-
   4  0.004  0.709  0.285-
   5  0.032  0.334  0.673-
   6  0.181  0.790  0.014-
   7  0.681  0.290  0.014-
   8  0.651  0.717  0.969-
   9  0.189  0.988  0.204-
  10  0.200  0.013  0.785-
  11  0.831  0.960  0.822-
  12  0.825  0.041  0.173-
  13  0.207  0.660  0.469-
  14  0.280  0.190  0.514-
  15  0.780  0.690  0.514-
  16  0.707  0.160  0.469-
  17  0.331  0.460  0.822-
  18  0.325  0.541  0.173-
  19  0.689  0.488  0.204-
  20  0.700  0.513  0.785-
  21  0.479  0.198  0.704-
  22  0.450  0.840  0.322-
  23  0.504  0.209  0.285-
  24  0.532  0.834  0.673-
  25  0.492  0.501  0.498-  43 2.05  42 2.05  44 2.05  41 2.06
  26  0.491  0.001  0.998-  38 2.05  39 2.05  40 2.05  37 2.06
  27  0.991  0.501  0.998-  36 2.05  33 2.05  34 2.05  35 2.06
  28  0.992  0.001  0.498-  32 2.05  29 2.05  31 2.05  30 2.06
  29  0.127  0.872  0.600-  28 2.05
  30  0.094  0.137  0.369-  28 2.06
  31  0.855  0.890  0.379-  28 2.05
  32  0.886  0.122  0.637-  28 2.05
  33  0.862  0.636  0.101-  27 2.05
  34  0.880  0.364  0.879-  27 2.05
  35  0.127  0.604  0.869-  27 2.06
  36  0.113  0.396  0.137-  27 2.05
  37  0.627  0.104  0.869-  26 2.06
  38  0.613  0.896  0.137-  26 2.05
  39  0.362  0.136  0.101-  26 2.05
  40  0.380  0.864  0.879-  26 2.05
  41  0.594  0.637  0.369-  25 2.06
  42  0.627  0.372  0.600-  25 2.05
  43  0.386  0.622  0.637-  25 2.05
  44  0.355  0.390  0.379-  25 2.05
  45  0.748  0.746  0.746-
  46  0.736  0.257  0.246-
  47  0.236  0.757  0.246-
  48  0.248  0.246  0.746-
  49  0.024  0.995  0.994-
  50  0.986  0.533  0.494-
  51  0.486  0.033  0.494-
  52  0.524  0.495  0.994-

  LATTYP: Found a simple cubic cell.
 ALAT       =     9.6342552309

  Lattice vectors:

 A1 = (   9.6342552309,   0.0000000000,   0.0000000000)
 A2 = (   0.0000000000,   9.6342552309,   0.0000000000)
 A3 = (   0.0000000000,   0.0000000000,   9.6342552309)

Analysis of symmetry for initial positions (statically):
 Subroutine PRICEL returns following result:

  LATTYP: Found a simple tetragonal cell.
 ALAT       =     6.8124408980
 C/A-ratio  =     1.4142148718

[...]

   2 primitive cells build up your supercell.

 Routine SETGRP: Setting up the symmetry group for a
 simple cubic supercell.

 Subroutine GETGRP returns: Found  1 space group operations
 (whereof  1 operations were pure point group operations)
 out of a pool of 48 trial point group operations.

The static configuration has the point symmetry C_1 .

Analysis of symmetry for dynamics (positions and initial velocities):
 Subroutine PRICEL returns following result:

[...]

The dynamic configuration has the point symmetry C_1 .

Analysis of structural, dynamic, and magnetic symmetry:
 Subroutine PRICEL returns following result:

  LATTYP: Found a simple tetragonal cell.
 ALAT       =     6.8124408980
 C/A-ratio  =     1.4142148718

  Lattice vectors:

 A1 = (   4.8171260484,  -4.8171202624,   0.0000000000)
 A2 = (   4.8171260484,   4.8171349684,   0.0000000000)
 A3 = (   0.0000000000,   0.0000000000,   9.6342552309)

   2 primitive cells build up your supercell.

 Routine SETGRP: Setting up the symmetry group for a
 simple cubic supercell.

 Subroutine GETGRP returns: Found  1 space group operations
 (whereof  1 operations were pure point group operations)
 out of a pool of 48 trial point group operations.

The overall configuration has the point symmetry C_1 .

 Subroutine INISYM returns: Found  1 space group operations
 (whereof  1 operations are pure point group operations),
 and found     2 'primitive' translations

                                     Primitive cell

  volume of cell :     447.1202

  direct lattice vectors                    reciprocal lattice vectors
     4.817126048 -4.817120262  0.000000000     0.103796487 -0.103796295  0.000000000
     4.817126048  4.817134968  0.000000000     0.103796171  0.103796295  0.000000000
     0.000000000  0.000000000  9.634255231     0.000000000  0.000000000  0.103796295

  length of vectors
     6.812440898  6.812451297  9.634255231     0.146790264  0.146790040  0.103796295

  position of ions in fractional coordinates (direct lattice)
     0.610014983  0.290763420  0.322318534
     0.280735173  0.676513993  0.703838338
     0.934169387  0.367583770  0.969066561
     0.294840626  0.712997837  0.285306645
     0.697571617  0.366135671  0.673336972
     0.391209700  0.970976091  0.014198308
     0.200556949  0.176633092  0.203847378
     0.186301787  0.212875861  0.785267765
     0.871240100  0.790766351  0.822310034
     0.783662545  0.866101219  0.173313332
     0.547065244  0.867509377  0.469034275
     0.090044597  0.470899555  0.514199999
     0.990996855  0.992600620  0.498333274
     0.490112671  0.492707221  0.998336663
     0.255150681  0.998638261  0.600466707
     0.957941444  0.230983342  0.369004064
     0.965337013  0.744582371  0.378643466
     0.763873038  0.008431546  0.637118937
     0.225988766  0.498773348  0.100506396
     0.515751926  0.244692453  0.878632199
     0.523264916  0.731072103  0.869011150
     0.717260500  0.508445457  0.137114992
     0.002069524  0.493215531  0.745849837
     0.479173301  0.993229119  0.245839321
     0.028402676  0.018705033  0.993797376
     0.452841974  0.518596286  0.493843241

  ion indices of the primitive-cell ions
   primitive index   ion index
                 1           1
                 2           2
                 3           3
                 4           4
                 5           5
                 6           7
                 7          19
                 8          20
                 9          11
                10          12
                11          16
                12          14
                13          28
                14          27
                15          42
                16          30
                17          44
                18          32
                19          33
                20          34
                21          35
                22          36
                23          48
                24          46
                25          49
                26          50

 KPOINTS: Automatic mesh

Automatic generation of k-mesh.
 Grid dimensions read from file:
 generate k-points for:    2    2    2

[...]
     17     -42.2084      1.00000
     18     -42.2081      1.00000
     19     -42.2081      1.00000
     20     -42.2079      1.00000
     21     -42.1930      1.00000
     22     -42.1929      1.00000
     23     -42.1928      1.00000
     24     -42.1926      1.00000
     25     -12.9225      1.00000
     26     -12.9210      1.00000
     27     -12.9208      1.00000
     28     -12.9191      1.00000
     29     -12.6164      1.00000
     30     -12.6158      1.00000
     31     -12.6157      1.00000
     32     -12.6155      1.00000
     33     -10.1579      1.00000
     34     -10.1463      1.00000
     35     -10.1456      1.00000
     36     -10.1303      1.00000
     37      -9.9703      1.00000
     38      -9.9318      1.00000
     39      -9.9189      1.00000
     40      -9.9183      1.00000
     41      -9.8558      1.00000
     42      -9.8556      1.00000
     43      -9.8481      1.00000
     44      -9.7932      1.00000
     45      -8.2208      1.00000
     46      -8.2155      1.00000
     47      -8.2152      1.00000
     48      -8.2151      1.00000
     49      -5.7385      1.00000
     50      -5.7147      1.00000
     51      -5.7145      1.00000
     52      -5.7023      1.00000
     53      -2.9230      1.00000
     54      -2.9112      1.00000
     55      -2.9108      1.00000
     56      -2.8602      1.00000
     57      -2.6416      1.00000
     58      -2.6297      1.00000
     59      -2.5093      1.00000
     60      -2.5090      1.00000
[...]
    162       9.2135      0.00000
    163       9.2138      0.00000
    164       9.3576      0.00000
    165       9.4488      0.00000
    166       9.4746      0.00000
    167       9.4750      0.00000
    168       9.6133      0.00000
    169       9.6550      0.00000
    170       9.6965      0.00000
    171       9.7789      0.00000
    172       9.7795      0.00000
    173       9.9541      0.00000
    174       9.9574      0.00000
    175      10.0064      0.00000
    176      10.0849      0.00000

[...]

 soft charge-density along one line, spin component           2
         0         1         2         3         4         5         6         7         8         9
 total charge-density along one line

------------------------ aborting loop because EDIFF is reached ----------------------------------------

         DFTD3 V3.0 Rev 1
 Edisp (eV)  -13.70081

 E6    (eV) :    -8.4397
 E8    (eV) :    -5.2611
 % E8        : 38.40

  FORCE on cell =-STRESS in cart. coord.  units (eV):
  Direction    XX          YY          ZZ          XY          YZ          ZX
  Alpha Z   303.56200   303.56200   303.56200
  Ewald   -2976.98852 -2977.05934 -2920.28102   -12.49851    53.72373    53.70584
  Hartree   712.30568   712.28453   746.65829     1.87433    20.06612    20.12178
  E(xc)    -947.84678  -947.84691  -947.83469    -0.05353     0.13217     0.13170
  Local   -1447.20125 -1447.11169 -1534.74577     6.09155   -69.66682   -69.72873
  n-local  1481.64388  1481.68285  1481.40634     0.02452     0.66449     0.64519
  augment  -356.88318  -356.88034  -356.99739    -0.27363     0.09160     0.08863
  Kinetic  3244.66046  3244.65296  3245.18810     5.93278    -2.81128    -2.77481
  Fock        0.00000     0.00000     0.00000     0.00000     0.00000     0.00000
  vdW       -14.49339   -14.49337   -14.42089    -0.00042     0.00797     0.00785
  Total      -1.24110    -1.20933     2.53496     1.09710     2.20798     2.19743
  in kB      -2.22364    -2.16671     4.54179     1.96563     3.95596     3.93705

 VOLUME and BASIS-vectors are now :
  energy-cutoff  :      520.00
  volume of cell :      894.24
      direct lattice vectors                 reciprocal lattice vectors
     9.634255231  0.000000000  0.000000000     0.103796295  0.000000000  0.000000000
     0.000000000  9.634255231  0.000000000     0.000000000  0.103796295  0.000000000
     0.000000000  0.000000000  9.634255231     0.000000000  0.000000000  0.103796295

  length of vectors
     9.634255231  9.634255231  9.634255231     0.103796295  0.103796295  0.103796295

 FORCES acting on ions
    electron-ion (+dipol)            ewald-force                    non-local-force                 convergence-correction
   0.121E+01 -.659E+01 -.113E+02   -.191E+01 0.538E+01 0.992E+01   0.705E+00 0.121E+01 0.142E+01   0.622E-06 -.229E-05 -.575E-05
   -.306E+01 0.786E+00 -.517E+01   0.241E+01 -.112E+00 0.626E+01   0.646E+00 -.677E+00 -.109E+01   -.124E-04 -.130E-04 0.315E-05
   0.603E+01 -.293E+01 -.309E+01   -.492E+01 0.363E+01 0.251E+01   -.111E+01 -.693E+00 0.575E+00   -.627E-04 0.130E-04 -.399E-04
   0.483E+01 0.338E+01 0.178E+01   -.396E+01 -.236E+01 -.297E+01   -.859E+00 -.102E+01 0.119E+01   -.278E-04 -.621E-05 -.968E-05
   0.179E+01 -.121E+02 0.154E+02   -.789E+00 0.105E+02 -.140E+02   -.100E+01 0.160E+01 -.142E+01   0.216E-04 0.460E-04 0.255E-04
   0.288E+01 0.302E+01 0.368E+01   -.196E+01 -.421E+01 -.292E+01   -.929E+00 0.119E+01 -.753E+00   0.789E-04 0.773E-04 0.177E-04
   0.288E+01 0.302E+01 0.368E+01   -.196E+01 -.421E+01 -.292E+01   -.929E+00 0.119E+01 -.753E+00   0.793E-04 0.775E-04 0.179E-04
   0.603E+01 -.293E+01 -.309E+01   -.492E+01 0.362E+01 0.251E+01   -.111E+01 -.693E+00 0.575E+00   -.624E-04 0.130E-04 -.399E-04
   0.791E+00 -.305E+01 -.518E+01   -.119E+00 0.240E+01 0.627E+01   -.674E+00 0.646E+00 -.109E+01   -.358E-04 0.496E-05 0.418E-04
   0.338E+01 0.483E+01 0.180E+01   -.236E+01 -.396E+01 -.299E+01   -.102E+01 -.859E+00 0.119E+01   0.894E-05 -.563E-04 -.284E-04
   -.658E+01 0.120E+01 -.114E+02   0.538E+01 -.191E+01 0.994E+01   0.121E+01 0.706E+00 0.142E+01   0.136E-04 -.578E-04 0.418E-04
   -.122E+02 0.179E+01 0.154E+02   0.106E+02 -.790E+00 -.140E+02   0.160E+01 -.100E+01 -.142E+01   0.297E-04 0.155E-04 0.460E-04
   -.290E+01 0.602E+01 -.308E+01   0.360E+01 -.491E+01 0.251E+01   -.694E+00 -.111E+01 0.574E+00   -.180E-04 -.481E-04 -.101E-03
   0.303E+01 0.290E+01 0.369E+01   -.421E+01 -.197E+01 -.294E+01   0.119E+01 -.928E+00 -.753E+00   0.548E-04 0.570E-04 -.206E-04
   0.303E+01 0.290E+01 0.369E+01   -.421E+01 -.197E+01 -.294E+01   0.119E+01 -.928E+00 -.753E+00   0.550E-04 0.571E-04 -.205E-04
   -.290E+01 0.602E+01 -.308E+01   0.360E+01 -.491E+01 0.251E+01   -.694E+00 -.111E+01 0.574E+00   -.181E-04 -.481E-04 -.101E-03
   -.658E+01 0.120E+01 -.114E+02   0.538E+01 -.191E+01 0.994E+01   0.121E+01 0.706E+00 0.142E+01   0.134E-04 -.578E-04 0.417E-04
   -.122E+02 0.179E+01 0.154E+02   0.106E+02 -.790E+00 -.140E+02   0.160E+01 -.100E+01 -.142E+01   0.294E-04 0.155E-04 0.461E-04
   0.790E+00 -.305E+01 -.518E+01   -.119E+00 0.240E+01 0.627E+01   -.674E+00 0.646E+00 -.109E+01   -.356E-04 0.513E-05 0.417E-04
   0.338E+01 0.483E+01 0.180E+01   -.236E+01 -.396E+01 -.299E+01   -.102E+01 -.859E+00 0.119E+01   0.929E-05 -.561E-04 -.284E-04
   -.306E+01 0.786E+00 -.517E+01   0.241E+01 -.112E+00 0.626E+01   0.646E+00 -.677E+00 -.109E+01   -.124E-04 -.131E-04 0.292E-05
   0.121E+01 -.659E+01 -.113E+02   -.191E+01 0.538E+01 0.992E+01   0.705E+00 0.121E+01 0.142E+01   0.579E-06 -.223E-05 -.570E-05
   0.483E+01 0.338E+01 0.178E+01   -.396E+01 -.236E+01 -.297E+01   -.859E+00 -.102E+01 0.119E+01   -.279E-04 -.604E-05 -.951E-05
   0.179E+01 -.121E+02 0.154E+02   -.789E+00 0.105E+02 -.140E+02   -.100E+01 0.160E+01 -.142E+01   0.218E-04 0.460E-04 0.255E-04
   -.168E+01 0.218E+01 -.187E+01   0.145E+01 -.202E+01 0.201E+01   0.220E+00 -.157E+00 -.137E+00   -.101E-03 0.922E-05 -.121E-03
   0.219E+01 -.168E+01 -.188E+01   -.202E+01 0.145E+01 0.201E+01   -.159E+00 0.224E+00 -.137E+00   0.431E-04 -.114E-03 -.730E-04
   0.219E+01 -.168E+01 -.188E+01   -.202E+01 0.145E+01 0.201E+01   -.159E+00 0.224E+00 -.137E+00   0.427E-04 -.114E-03 -.735E-04
   -.168E+01 0.218E+01 -.187E+01   0.146E+01 -.202E+01 0.201E+01   0.220E+00 -.157E+00 -.137E+00   -.100E-03 0.936E-05 -.120E-03
   -.584E+02 0.316E+02 -.256E+02   0.627E+02 -.344E+02 0.279E+02   -.428E+01 0.288E+01 -.233E+01   0.260E-04 0.225E-04 0.121E-03
   -.261E+02 -.470E+02 0.415E+02   0.282E+02 0.505E+02 -.448E+02   -.210E+01 -.344E+01 0.328E+01   -.774E-04 0.189E-04 -.455E-04
   0.577E+02 0.244E+02 0.376E+02   -.618E+02 -.264E+02 -.404E+02   0.410E+01 0.194E+01 0.282E+01   -.957E-04 0.110E-03 -.384E-04
   0.344E+02 -.420E+02 -.485E+02   -.367E+02 0.450E+02 0.520E+02   0.229E+01 -.296E+01 -.345E+01   0.367E-04 -.129E-03 -.133E-03
   0.315E+02 -.584E+02 -.256E+02   -.344E+02 0.627E+02 0.280E+02   0.288E+01 -.428E+01 -.234E+01   -.815E-05 0.790E-05 0.150E-03
   0.244E+02 0.577E+02 0.376E+02   -.263E+02 -.618E+02 -.404E+02   0.194E+01 0.410E+01 0.282E+01   0.666E-04 -.909E-04 -.149E-04
   -.471E+02 -.261E+02 0.415E+02   0.505E+02 0.282E+02 -.448E+02   -.344E+01 -.210E+01 0.328E+01   -.836E-04 -.114E-03 0.917E-04
   -.420E+02 0.344E+02 -.485E+02   0.450E+02 -.367E+02 0.520E+02   -.296E+01 0.230E+01 -.346E+01   -.775E-04 -.460E-04 0.183E-04
   -.471E+02 -.261E+02 0.415E+02   0.505E+02 0.282E+02 -.448E+02   -.344E+01 -.210E+01 0.328E+01   -.826E-04 -.114E-03 0.913E-04
   -.420E+02 0.344E+02 -.485E+02   0.450E+02 -.367E+02 0.520E+02   -.296E+01 0.230E+01 -.346E+01   -.775E-04 -.460E-04 0.183E-04
   0.315E+02 -.584E+02 -.256E+02   -.344E+02 0.627E+02 0.280E+02   0.288E+01 -.428E+01 -.234E+01   -.834E-05 0.824E-05 0.150E-03
   0.244E+02 0.577E+02 0.376E+02   -.263E+02 -.618E+02 -.404E+02   0.194E+01 0.410E+01 0.282E+01   0.666E-04 -.917E-04 -.152E-04
   -.261E+02 -.470E+02 0.415E+02   0.282E+02 0.505E+02 -.448E+02   -.210E+01 -.344E+01 0.328E+01   -.776E-04 0.189E-04 -.456E-04
   -.584E+02 0.316E+02 -.256E+02   0.627E+02 -.344E+02 0.279E+02   -.428E+01 0.288E+01 -.233E+01   0.266E-04 0.219E-04 0.121E-03
   0.344E+02 -.420E+02 -.485E+02   -.367E+02 0.450E+02 0.520E+02   0.229E+01 -.296E+01 -.345E+01   0.364E-04 -.129E-03 -.134E-03
   0.577E+02 0.244E+02 0.376E+02   -.618E+02 -.264E+02 -.404E+02   0.410E+01 0.194E+01 0.282E+01   -.955E-04 0.110E-03 -.384E-04
   0.206E+01 -.155E+02 -.233E+01   -.220E+01 0.158E+02 0.243E+01   0.132E+00 -.313E+00 -.108E+00   -.451E-04 0.128E-03 -.202E-04
   -.155E+02 0.204E+01 -.232E+01   0.158E+02 -.218E+01 0.243E+01   -.314E+00 0.133E+00 -.107E+00   0.180E-03 -.487E-04 -.767E-05
   -.155E+02 0.204E+01 -.232E+01   0.158E+02 -.218E+01 0.243E+01   -.314E+00 0.133E+00 -.107E+00   0.180E-03 -.487E-04 -.762E-05
   0.206E+01 -.155E+02 -.233E+01   -.220E+01 0.158E+02 0.244E+01   0.132E+00 -.313E+00 -.108E+00   -.454E-04 0.127E-03 -.204E-04
   0.394E+02 0.174E+01 -.204E+01   -.400E+02 -.183E+01 0.207E+01   0.597E+00 0.979E-01 -.325E-01   -.118E-03 0.484E-04 0.674E-04
   0.176E+01 0.393E+02 -.197E+01   -.185E+01 -.399E+02 0.200E+01   0.979E-01 0.598E+00 -.317E-01   0.617E-04 -.106E-03 -.528E-04
   0.176E+01 0.393E+02 -.197E+01   -.185E+01 -.399E+02 0.200E+01   0.979E-01 0.598E+00 -.317E-01   0.620E-04 -.106E-03 -.529E-04
   0.394E+02 0.174E+01 -.204E+01   -.400E+02 -.184E+01 0.208E+01   0.597E+00 0.979E-01 -.325E-01   -.118E-03 0.485E-04 0.675E-04
   0.385E+01 0.384E+01 0.175E+00   -.711E-13 0.657E-13 0.515E-13   -.385E+01 -.382E+01 -.203E+00   -.279E-03 -.548E-03 -.177E-03

 POSITION                                       TOTAL-FORCE (eV/Angst)
      9.15630      3.27926      3.10527         0.000083     -0.000037     -0.000161
      9.42829      6.72360      6.78101        -0.000083     -0.000321      0.000265
      1.45372      2.08778      9.33627         0.000801     -0.000194      0.000195
      0.03779      6.83141      2.74868         0.000157     -0.000176     -0.000158
      0.30688      3.22047      6.48708        -0.000078     -0.000498     -0.000122
      1.74473      7.60998      0.13680         0.000316      0.000204     -0.000002
      6.56187      2.79285      0.13680         0.000316      0.000204     -0.000002
      6.27082      6.90490      9.33626         0.000801     -0.000194      0.000195
      1.81690      9.51900      1.96396        -0.000346     -0.000047      0.000250
      1.92288      0.12806      7.56544        -0.000152      0.000196     -0.000081
      8.00608      9.24662      7.92231        -0.000090      0.000084     -0.000156
      7.94703      0.39712      1.66974        -0.000505     -0.000074     -0.000038
      1.99702      6.36092      4.51883        -0.000178      0.000930      0.000257
      2.70217      1.83468      4.95394         0.000187      0.000320      0.000009
      7.51929      6.65178      4.95394         0.000187      0.000320      0.000009
      6.81415      1.54379      4.51884        -0.000178      0.000930      0.000257
      3.18895      4.42950      7.92230        -0.000090      0.000084     -0.000156
      3.12989      5.21425      1.66972        -0.000505     -0.000074     -0.000038
      6.63404      4.70188      1.96396        -0.000346     -0.000047      0.000250
      6.73999      4.94519      7.56545        -0.000152      0.000196     -0.000081
      4.61118      1.90649      6.78101        -0.000083     -0.000321      0.000265
      4.33916      8.09640      3.10526         0.000083     -0.000037     -0.000161
      4.85493      2.01429      2.74869         0.000157     -0.000176     -0.000158
      5.12401      8.03762      6.48707        -0.000078     -0.000498     -0.000122
      4.73810      4.82489      4.80107        -0.000152      0.000018     -0.000094
      4.73440      0.01253      9.61820         0.000108     -0.000117     -0.000229
      9.55152      4.82966      9.61819         0.000108     -0.000117     -0.000229
      9.55523      0.00776      4.80107        -0.000152      0.000018     -0.000094
      1.22234      8.39872      5.78503         0.000041     -0.000318      0.000562
      0.91001      1.31518      3.55525         0.000392      0.000313      0.000015
      8.23706      8.57093      3.64801        -0.000105     -0.000379     -0.000573
      8.53747      1.17795      6.13801        -0.000389      0.000126      0.000103
      8.30852      6.13097      0.96826        -0.000261     -0.000005      0.000446
      8.48038      3.51157      8.46502        -0.000343     -0.000108     -0.000630
      1.22508      5.81811      8.37243         0.000305      0.000419     -0.000006
      1.08713      3.81129      1.32083         0.000240     -0.000435      0.000141
      6.04221      1.00098      8.37243         0.000305      0.000419     -0.000006
      5.90427      8.62842      1.32083         0.000240     -0.000435      0.000141
      3.49140      1.31384      0.96826        -0.000261     -0.000005      0.000446
      3.66325      8.32869      8.46502        -0.000343     -0.000108     -0.000630
      5.72713      6.13231      3.55524         0.000392      0.000313      0.000015
      6.03947      3.58160      5.78502         0.000041     -0.000318      0.000562
      3.72033      5.99509      6.13800        -0.000389      0.000126      0.000103
      3.41994      3.75381      3.64800        -0.000105     -0.000379     -0.000573
      7.20296      7.18304      7.18570        -0.000007      0.000021      0.000025
      7.09274      2.47628      2.36847        -0.000005      0.000013      0.000025
      2.27561      7.29341      2.36847        -0.000005      0.000013      0.000025
      2.38584      2.36591      7.18570        -0.000007      0.000021      0.000025
      0.22692      9.58756      9.57450         0.000052      0.000080      0.000001
      9.49668      5.13389      4.75782         0.000011     -0.000016     -0.000041
      4.67955      0.31677      4.75782         0.000011     -0.000016     -0.000041
      5.04405      4.77042      9.57450         0.000052      0.000080      0.000001
    total drift:                               -0.000470      0.015217     -0.027741

  FREE ENERGIE OF THE ION-ELECTRON SYSTEM (eV)
  free  energy   TOTEN  =      -272.54991638 eV

  energy  without entropy=     -272.54991638  energy(sigma->0) =     -272.54991638

 d Force = 0.8091264E-06[ 0.494E-06, 0.112E-05]  d Energy = 0.1177746E-05-0.369E-06
 d Force =-0.9306687E-02[-0.931E-02,-0.931E-02]  d Ewald  =-0.9306687E-02 0.600E-10

 stress matrix after NEB project (eV)
     -1.24110      1.09710      2.19743
      1.09710     -1.20933      2.20798
      2.19743      2.20798      2.53496
  FORCES: max atom, RMS     0.000981    0.000475
  FORCE total and by dimension    0.003423    0.000930
  Stress total and by dimension    5.589621    2.534961
 Conjugate gradient step on ions:
 trial-energy change:   -0.000001  1 .order   -0.000001   -0.000001   -0.000000
  (g-gl).g = 0.911E-06      g.g   = 0.849E-06  gl.gl    = 0.526E-05
 g(Force)  = 0.849E-06   g(Stress)= 0.000E+00 ortho     =-0.625E-07
 gamma     =   0.17341
 trial     =   1.34166
 opt step  =   2.39357  (harmonic =   2.39357) maximal distance =0.00009496
 next E    =  -272.549916   (d E  =  -0.00000)

 reached required accuracy - stopping structural energy minimisation