 vasp.6.4.1 05Apr23 (build Jun 07 2023 15:38:11) complex

 executed on             LinuxIFC date 2023.10.20  08:23:55

 INCAR:
   GGA = PE
   PREC = Accu
   EDIFF = 1.e-6
   EDIFFG = -1.e-3
   ENCUT = 520.
   NELM = 100
   NELMDL = -10
   LASPH = .TRUE.
   LREAL = Auto
   LMAXMIX = 4
   ISPIN = 2
   LDIAG = .TRUE.
   LPLANE = .TRUE.
   IVDW = 12
   SIGMA = 0.03
   ISMEAR = 0
   NSW = 1000    number of steps for IOM
   IBRION = 2    ionic relax: 0-MD 1-quasi-New 2-CG
   ISIF = 2    ionic relaxation + stress tensor calcn.
   LCHARG = .FALSE.
   LWAVE = .FALSE.
   ALGO = F
   KPAR = 1
   NPAR = 4
   POTIM = 0.2

 POTCAR:    PAW_PBE Li_sv_GW 25Mar2010
 POTCAR:    PAW_PBE P_GW 19Mar2012
 POTCAR:    PAW_PBE S_GW 19Mar2012
 POTCAR:    PAW_PBE Cl_GW 19Mar2012
|           W    W    AA    RRRRR   N    N  II  N    N   GGGG   !!!           |
|           W    W   A  A   R    R  NN   N  II  NN   N  G    G  !!!           |
|           W    W  A    A  R    R  N N  N  II  N N  N  G       !!!           |
|           W WW W  AAAAAA  RRRRR   N  N N  II  N  N N  G  GGG   !            |
|           WW  WW  A    A  R   R   N   NN  II  N   NN  G    G                |
|           W    W  A    A  R    R  N    N  II  N    N   GGGG   !!!           |
|     You use a magnetic or noncollinear calculation, but did not specify     |
|     the initial magnetic moment with the MAGMOM tag. Note that a            |
|     default of 1 will be used for all atoms. This ferromagnetic setup       |
|     may break the symmetry of the crystal, in particular it may rule        |
|     out finding an antiferromagnetic solution. Thence, we recommend         |
|     setting the initial magnetic moment manually or verifying carefully     |
|     that this magnetic setup is desired.                                    |

   TITEL  = PAW_PBE Li_sv_GW 25Mar2010
   POMASS =    7.010; ZVAL   =    3.000    mass and valenz
   ENMAX  =  433.699; ENMIN  =  325.274 eV

   TITEL  = PAW_PBE P_GW 19Mar2012
   POMASS =   30.974; ZVAL   =    5.000    mass and valenz
   ENMAX  =  255.040; ENMIN  =  191.280 eV

[...]

   TITEL  = PAW_PBE Cl_GW 19Mar2012
   POMASS =   35.453; ZVAL   =    7.000    mass and valenz
   ENMAX  =  262.472; ENMIN  =  196.854 eV

 Optimization of the real space projectors (new method)

 maximal supplied QI-value         = 25.13
 optimisation between [QCUT,QGAM] = [ 11.56, 23.12] = [ 37.43,149.72] Ry
 Optimized for a Real-space Cutoff    1.28 Angstroem

   l    n(q)    QCUT    max X(q) W(low)/X(q) W(high)/X(q)  e(spline)
   0      9    11.561    87.733    0.11E-03    0.32E-04    0.56E-06
   0      9    11.561    82.800    0.11E-03    0.35E-04    0.56E-06
   0      9    11.561     2.509    0.22E-03    0.42E-04    0.79E-06
   1      8    11.561    12.580    0.94E-04    0.26E-03    0.21E-06
   1      8    11.561     1.319    0.33E-04    0.15E-03    0.19E-06
   2      8    11.561     1.993    0.36E-04    0.89E-04    0.26E-06
 Optimization of the real space projectors (new method)

[...]

   l    n(q)    QCUT    max X(q) W(low)/X(q) W(high)/X(q)  e(spline)
   0     10    11.508     7.541    0.34E-04    0.13E-04    0.69E-07
   0     10    11.508     1.809    0.49E-04    0.27E-04    0.14E-06
   1     10    11.508     4.107    0.27E-05    0.41E-05    0.14E-06
   1     10    11.508     2.196    0.26E-05    0.25E-05    0.22E-06
   2      9    11.508     4.265    0.18E-03    0.11E-03    0.81E-06
   2      9    11.508     1.925    0.97E-04    0.76E-04    0.47E-06
 Optimization of the real space projectors (new method)

 maximal supplied QI-value         = 19.84
 optimisation between [QCUT,QGAM] = [ 11.51, 23.22] = [ 37.09,150.92] Ry
 Optimized for a Real-space Cutoff    1.21 Angstroem

   l    n(q)    QCUT    max X(q) W(low)/X(q) W(high)/X(q)  e(spline)
   0      8    11.508     6.761    0.57E-04    0.57E-04    0.35E-07
   0      8    11.508     1.642    0.14E-03    0.14E-03    0.91E-07
   1      8    11.508     3.519    0.20E-04    0.72E-04    0.47E-07
   1      8    11.508     2.150    0.27E-04    0.11E-03    0.89E-07
   2      7    11.508     2.976    0.19E-03    0.33E-03    0.16E-06
   2      7    11.508     1.494    0.14E-03    0.29E-03    0.14E-06
  PAW_PBE Li_sv_GW 25Mar2010            :
  PAW_PBE P_GW 19Mar2012                :
  PAW_PBE S_GW 19Mar2012                :
  PAW_PBE Cl_GW 19Mar2012               :

 POSCAR: Li24 P4 S20 Cl4
  positions in direct lattice
  velocities in cartesian coordinates
 exchange correlation table for  LEXCH =        8
   RHO(1)=    0.500       N(1)  =     2000
   RHO(2)=  100.500       N(2)  =     4000

 VTST: version 4.1, (05/19/21)

 CHAIN: initializing optimizer

 OPT: Using VASP Conjugate-Gradient optimizer
 CHAIN: Read ICHAIN            0

 POSCAR: Li24 P4 S20 Cl4
  positions in direct lattice
  velocities in cartesian coordinates

 ion  position               nearest neighbor table
   1  0.965  0.340  0.340-
   2  0.964  0.828  0.828-
   3  0.023  0.179  0.780-
   4  0.023  0.780  0.179-
   5  0.195  0.208  0.983-
   6  0.313  0.701  0.019-
   7  0.802  0.210  0.025-
   8  0.679  0.692  0.972-
   9  0.195  0.983  0.208-
  10  0.313  0.019  0.701-
  11  0.679  0.972  0.692-
  12  0.802  0.025  0.210-
  13  0.159  0.696  0.462-
  14  0.305  0.206  0.524-
  15  0.807  0.702  0.517-
  16  0.676  0.202  0.478-
  17  0.159  0.462  0.696-
  18  0.305  0.524  0.206-
  19  0.676  0.478  0.202-
  20  0.807  0.517  0.702-
  21  0.462  0.332  0.836-
  22  0.462  0.836  0.332-
  23  0.525  0.240  0.240-
  24  0.520  0.730  0.730-
  25  0.490  0.504  0.504-  43 2.05  41 2.05  42 2.05  44 2.06
  26  0.503  0.999  0.999-  37 2.04  38 2.04  40 2.06  39 2.06
  27  0.998  0.500  0.004-  36 2.05  35 2.05  33 2.06  34 2.06
  28  0.998  0.004  0.500-  30 2.05  29 2.05  32 2.06  31 2.06
  29  0.115  0.885  0.629-  28 2.05
  30  0.115  0.135  0.383-  28 2.05
  31  0.890  0.873  0.371-  28 2.06
  32  0.862  0.119  0.615-  28 2.06
  33  0.862  0.615  0.119-  27 2.06
  34  0.890  0.371  0.873-  27 2.06
  35  0.115  0.629  0.885-  27 2.05
  36  0.115  0.383  0.135-  27 2.05
  37  0.619  0.129  0.880-  26 2.04
  38  0.619  0.880  0.129-  26 2.04
  39  0.371  0.117  0.117-  26 2.06
  40  0.387  0.874  0.874-  26 2.06
  41  0.608  0.633  0.386-  25 2.05
  42  0.608  0.386  0.633-  25 2.05
  43  0.348  0.614  0.614-  25 2.05
  44  0.380  0.375  0.375-  25 2.06
  45  0.751  0.748  0.748-
  46  0.753  0.255  0.255-
  47  0.249  0.755  0.245-
  48  0.249  0.245  0.755-
  49  0.996  0.015  0.015-
  50  0.984  0.518  0.518-
  51  0.492  0.019  0.515-
  52  0.492  0.515  0.019-

  LATTYP: Found a simple cubic cell.
 ALAT       =     9.7065407818

  Lattice vectors:

 A1 = (   9.7065407818,   0.0000000000,   0.0000000000)
 A2 = (   0.0000000000,   9.7065407818,   0.0000000000)
 A3 = (   0.0000000000,   0.0000000000,   9.7065407818)

Analysis of symmetry for initial positions (statically):
 Subroutine PRICEL returns:
 Original cell was already a primitive cell.

 Routine SETGRP: Setting up the symmetry group for a
 simple cubic supercell.

 Subroutine GETGRP returns: Found  2 space group operations
 (whereof  2 operations were pure point group operations)
 out of a pool of 48 trial point group operations.

The static configuration has the point symmetry C_1h.

Analysis of symmetry for dynamics (positions and initial velocities):
 Subroutine PRICEL returns:
 Original cell was already a primitive cell.

[...]

The dynamic configuration has the point symmetry C_1h.

Analysis of structural, dynamic, and magnetic symmetry:
 Subroutine PRICEL returns:
 Original cell was already a primitive cell.

 Routine SETGRP: Setting up the symmetry group for a
 simple cubic supercell.

 Subroutine GETGRP returns: Found  2 space group operations
 (whereof  2 operations were pure point group operations)
 out of a pool of 48 trial point group operations.

The overall configuration has the point symmetry C_1h.

 Subroutine INISYM returns: Found  2 space group operations
 (whereof  2 operations are pure point group operations),
 and found     1 'primitive' translations

                                     Primitive cell

  volume of cell :     914.5205

  direct lattice vectors                    reciprocal lattice vectors
     9.706540782  0.000000000  0.000000000     0.103023314  0.000000000  0.000000000
     0.000000000  9.706540782  0.000000000     0.000000000  0.103023314  0.000000000
     0.000000000  0.000000000  9.706540782     0.000000000  0.000000000  0.103023314

  length of vectors
     9.706540782  9.706540782  9.706540782     0.103023314  0.103023314  0.103023314

  position of ions in fractional coordinates (direct lattice)
     0.964514122  0.339978208  0.339978208
     0.964189399  0.828222220  0.828222220
     0.022588171  0.178718031  0.780372465
     0.022588171  0.780372465  0.178718031
     0.195132038  0.208112004  0.983081097
     0.312776032  0.701177829  0.019047266
     0.802027514  0.210225819  0.024720916
     0.679321086  0.692264225  0.971837029
     0.195132038  0.983081097  0.208112004
     0.312776032  0.019047266  0.701177829
     0.679321086  0.971837029  0.692264225
     0.802027514  0.024720916  0.210225819
     0.159102474  0.696324889  0.462379283
     0.304979809  0.205852085  0.524499867
     0.807366392  0.702078953  0.517103655
     0.675833420  0.201609690  0.477976997
     0.159102474  0.462379283  0.696324889
     0.304979809  0.524499867  0.205852085
     0.675833420  0.477976997  0.201609690
     0.807366392  0.517103655  0.702078953
     0.461597669  0.332496123  0.836232278
     0.461597669  0.836232278  0.332496123
     0.524508972  0.239578917  0.239578917
     0.519675798  0.730039152  0.730039152
     0.489529877  0.503510702  0.503510702
     0.503210228  0.999242232  0.999242232
     0.997918173  0.499572994  0.003549377
     0.997918173  0.003549377  0.499572994
     0.115423569  0.885303624  0.629174367
     0.114934391  0.134824904  0.383206852
     0.890479854  0.873432370  0.371090759
     0.862339686  0.118764300  0.614568025
     0.862339686  0.614568025  0.118764300
     0.890479854  0.371090759  0.873432370
     0.115423569  0.629174367  0.885303624
     0.114934391  0.383206852  0.134824904
     0.619152961  0.128565584  0.880149948
     0.619152961  0.880149948  0.128565584
     0.371364005  0.116825870  0.116825870
     0.386756797  0.874201421  0.874201421
     0.607952661  0.633134951  0.385888748
     0.607952661  0.385888748  0.633134951
     0.348227953  0.614426313  0.614426313
     0.380142632  0.375067505  0.375067505
     0.750727393  0.748080128  0.748080128
     0.753046939  0.254505874  0.254505874
     0.248668656  0.754502486  0.245006572
     0.248668656  0.245006572  0.754502486
     0.996062290  0.014681975  0.014681975
     0.983947129  0.517771251  0.517771251
     0.491829882  0.019330790  0.515190592
     0.491829882  0.515190592  0.019330790

  ion indices of the primitive-cell ions
   primitive index   ion index
                 1           1
                 2           2
                 3           3
                 4           4
                 5           5
                 6           6
                 7           7
                 8           8
[...]
     17     -42.4582      1.00000
     18     -42.4205      1.00000
     19     -42.4204      1.00000
     20     -42.3915      1.00000
     21     -42.3836      1.00000
     22     -42.3835      1.00000
     23     -42.3724      1.00000
     24     -42.3693      1.00000
     25     -13.1901      1.00000
     26     -13.1331      1.00000
     27     -13.1123      1.00000
     28     -13.1047      1.00000
     29     -12.6307      1.00000
     30     -12.5023      1.00000
     31     -12.4997      1.00000
     32     -12.4732      1.00000
     33     -10.4067      1.00000
     34     -10.3861      1.00000
     35     -10.3424      1.00000
     36     -10.2106      1.00000
     37     -10.1928      1.00000
     38     -10.1700      1.00000
     39     -10.1463      1.00000
     40     -10.1179      1.00000
     41     -10.0925      1.00000
     42     -10.0697      1.00000
     43     -10.0614      1.00000
     44     -10.0509      1.00000
     45      -8.5393      1.00000
     46      -8.4473      1.00000
     47      -8.3975      1.00000
     48      -8.3954      1.00000
     49      -6.2308      1.00000
     50      -5.8512      1.00000
     51      -5.8002      1.00000
     52      -5.7836      1.00000
     53      -3.3396      1.00000
     54      -3.3201      1.00000
     55      -3.2780      1.00000
     56      -2.9362      1.00000
     57      -2.8726      1.00000
     58      -2.7497      1.00000
     59      -2.6897      1.00000
     60      -2.6377      1.00000
[...]
    162       8.9957      0.00000
    163       9.0517      0.00000
    164       9.1397      0.00000
    165       9.1562      0.00000
    166       9.2095      0.00000
    167       9.2468      0.00000
    168       9.2773      0.00000
    169       9.3631      0.00000
    170       9.4116      0.00000
    171       9.4490      0.00000
    172       9.4925      0.00000
    173       9.6026      0.00000
    174       9.6875      0.00000
    175       9.7154      0.00000
    176       9.7950      0.00000

[...]

 soft charge-density along one line, spin component           2
         0         1         2         3         4         5         6         7         8         9
 total charge-density along one line

------------------------ aborting loop because EDIFF is reached ----------------------------------------

         DFTD3 V3.0 Rev 1
 Edisp (eV)  -13.37646

 E6    (eV) :    -8.2409
 E8    (eV) :    -5.1355
 % E8        : 38.39

  FORCE on cell =-STRESS in cart. coord.  units (eV):
  Direction    XX          YY          ZZ          XY          YZ          ZX
  Alpha Z   296.83042   296.83042   296.83042
  Ewald   -2899.93142 -2928.35936 -2928.35936    27.25071   -24.62885    27.25071
  Hartree   764.38216   738.55021   738.55021     8.29821   -12.58515     8.29821
  E(xc)    -947.71953  -947.78344  -947.78344     0.05074     0.03489     0.05074
  Local   -1573.69083 -1511.62702 -1511.62702   -34.08729    33.37187   -34.08729
  n-local  1482.89645  1480.64921  1480.52848     0.33603     0.09498     1.32138
  augment  -356.86137  -356.48116  -356.48116    -0.13994     0.19177    -0.14632
  Kinetic  3246.96220  3243.29511  3243.10900     0.01019     0.10801     1.37289
  Fock        0.00000     0.00000     0.00000     0.00000     0.00000     0.00000
  vdW       -14.19928   -14.26636   -14.26636    -0.01893    -0.05147    -0.01893
  Total      -1.33121     0.65420     0.65420     2.87059    -3.46369     2.87059
  in kB      -2.33220     1.14612     1.14612     5.02907    -6.06815     5.02907

 VOLUME and BASIS-vectors are now :
  energy-cutoff  :      520.00
  volume of cell :      914.52
      direct lattice vectors                 reciprocal lattice vectors
     9.706540782  0.000000000  0.000000000     0.103023314  0.000000000  0.000000000
     0.000000000  9.706540782  0.000000000     0.000000000  0.103023314  0.000000000
     0.000000000  0.000000000  9.706540782     0.000000000  0.000000000  0.103023314

  length of vectors
     9.706540782  9.706540782  9.706540782     0.103023314  0.103023314  0.103023314

 FORCES acting on ions
    electron-ion (+dipol)            ewald-force                    non-local-force                 convergence-correction
   -.160E+01 -.107E+02 -.107E+02   0.855E+00 0.976E+01 0.976E+01   0.740E+00 0.921E+00 0.921E+00   -.110E-03 0.736E-04 0.736E-04
   -.798E+00 -.103E+02 -.103E+02   -.383E-01 0.903E+01 0.903E+01   0.833E+00 0.126E+01 0.126E+01   0.250E-04 -.865E-04 -.865E-04
   0.427E+01 0.834E+01 -.294E+01   -.340E+01 -.696E+01 0.159E+01   -.866E+00 -.138E+01 0.135E+01   -.854E-04 0.681E-04 -.796E-04
   0.427E+01 -.294E+01 0.834E+01   -.340E+01 0.159E+01 -.696E+01   -.866E+00 0.135E+01 -.138E+01   -.854E-04 -.796E-04 0.681E-04
   0.183E+01 0.155E+01 -.142E+01   -.395E+00 -.632E+00 0.757E+00   -.144E+01 -.922E+00 0.657E+00   -.546E-04 -.289E-04 -.124E-03
   -.960E+00 0.408E+01 0.717E+01   0.105E+00 -.285E+01 -.661E+01   0.857E+00 -.123E+01 -.552E+00   0.358E-04 0.364E-04 -.246E-03
   0.158E+01 0.269E+01 0.302E+01   -.250E+01 -.140E+01 -.262E+01   0.925E+00 -.128E+01 -.403E+00   0.632E-04 -.311E-04 -.108E-04
   0.259E+01 0.497E+01 0.340E+01   -.130E+01 -.416E+01 -.399E+01   -.129E+01 -.808E+00 0.586E+00   -.349E-04 0.231E-04 -.130E-03
   0.183E+01 -.142E+01 0.155E+01   -.395E+00 0.757E+00 -.632E+00   -.144E+01 0.657E+00 -.922E+00   -.546E-04 -.124E-03 -.289E-04
   -.960E+00 0.717E+01 0.408E+01   0.105E+00 -.661E+01 -.285E+01   0.857E+00 -.552E+00 -.123E+01   0.358E-04 -.246E-03 0.364E-04
   0.259E+01 0.340E+01 0.497E+01   -.130E+01 -.399E+01 -.416E+01   -.129E+01 0.586E+00 -.808E+00   -.349E-04 -.130E-03 0.231E-04
   0.158E+01 0.302E+01 0.269E+01   -.250E+01 -.262E+01 -.140E+01   0.925E+00 -.403E+00 -.128E+01   0.632E-04 -.108E-04 -.311E-04
   0.683E+00 0.583E+01 0.303E+01   0.429E+00 -.513E+01 -.377E+01   -.112E+01 -.698E+00 0.736E+00   0.281E-04 0.356E-04 0.967E-04
   0.899E+00 0.103E+01 0.331E+01   -.184E+01 0.781E-01 -.289E+01   0.949E+00 -.111E+01 -.420E+00   0.188E-05 0.123E-04 0.212E-03
   0.253E+01 -.705E-01 0.734E+01   -.322E+01 0.978E+00 -.683E+01   0.699E+00 -.910E+00 -.501E+00   0.269E-04 0.678E-04 0.304E-04
   0.825E+00 0.295E+01 0.924E+00   0.372E+00 -.216E+01 -.142E+01   -.120E+01 -.793E+00 0.492E+00   0.679E-04 -.493E-04 0.109E-03
   0.683E+00 0.303E+01 0.583E+01   0.429E+00 -.377E+01 -.513E+01   -.112E+01 0.736E+00 -.698E+00   0.281E-04 0.967E-04 0.356E-04
   0.899E+00 0.331E+01 0.103E+01   -.184E+01 -.289E+01 0.781E-01   0.949E+00 -.420E+00 -.111E+01   0.188E-05 0.212E-03 0.123E-04
   0.825E+00 0.924E+00 0.295E+01   0.372E+00 -.142E+01 -.216E+01   -.120E+01 0.492E+00 -.793E+00   0.679E-04 0.109E-03 -.493E-04
   0.253E+01 0.734E+01 -.705E-01   -.322E+01 -.683E+01 0.978E+00   0.699E+00 -.501E+00 -.910E+00   0.269E-04 0.304E-04 0.678E-04
   -.285E+01 -.129E+02 -.107E+02   0.204E+01 0.118E+02 0.949E+01   0.814E+00 0.103E+01 0.124E+01   -.486E-04 0.118E-03 -.679E-04
   -.285E+01 -.107E+02 -.129E+02   0.204E+01 0.949E+01 0.118E+02   0.814E+00 0.124E+01 0.103E+01   -.486E-04 -.679E-04 0.118E-03
   0.160E+01 0.313E+01 0.313E+01   -.773E+00 -.310E+01 -.310E+01   -.825E+00 -.310E-01 -.310E-01   0.916E-04 -.233E-04 -.233E-04
   0.342E+01 0.355E+01 0.355E+01   -.261E+01 -.335E+01 -.335E+01   -.798E+00 -.203E+00 -.203E+00   -.105E-03 0.657E-05 0.657E-05
   -.332E+01 -.506E+01 -.506E+01   0.341E+01 0.533E+01 0.533E+01   -.883E-01 -.271E+00 -.271E+00   -.175E-03 0.301E-03 0.301E-03
   -.541E+01 -.125E+01 -.125E+01   0.601E+01 0.123E+01 0.123E+01   -.600E+00 0.211E-01 0.211E-01   0.111E-03 -.291E-03 -.291E-03
   0.588E-01 -.156E+01 -.247E+01   0.359E+00 0.163E+01 0.264E+01   -.419E+00 -.671E-01 -.174E+00   -.322E-04 0.692E-04 -.161E-03
   0.588E-01 -.247E+01 -.156E+01   0.359E+00 0.264E+01 0.163E+01   -.419E+00 -.174E+00 -.671E-01   -.322E-04 -.161E-03 0.692E-04
   -.421E+02 0.425E+02 -.447E+02   0.450E+02 -.459E+02 0.477E+02   -.292E+01 0.339E+01 -.301E+01   0.201E-03 -.294E-03 -.282E-04
   -.343E+02 -.503E+02 0.333E+02   0.370E+02 0.540E+02 -.364E+02   -.264E+01 -.363E+01 0.312E+01   -.318E-03 -.365E-03 0.385E-03
   0.470E+02 0.428E+02 0.315E+02   -.502E+02 -.462E+02 -.343E+02   0.321E+01 0.339E+01 0.275E+01   0.109E-03 -.194E-03 -.279E-04
   0.381E+02 -.464E+02 -.322E+02   -.409E+02 0.498E+02 0.353E+02   0.280E+01 -.339E+01 -.308E+01   0.482E-04 0.671E-04 0.596E-04
   0.381E+02 -.322E+02 -.464E+02   -.409E+02 0.353E+02 0.498E+02   0.280E+01 -.308E+01 -.339E+01   0.482E-04 0.596E-04 0.671E-04
   0.470E+02 0.315E+02 0.428E+02   -.502E+02 -.343E+02 -.462E+02   0.321E+01 0.275E+01 0.339E+01   0.109E-03 -.279E-04 -.194E-03
   -.421E+02 -.447E+02 0.425E+02   0.450E+02 0.477E+02 -.459E+02   -.292E+01 -.301E+01 0.339E+01   0.201E-03 -.282E-04 -.294E-03
   -.343E+02 0.333E+02 -.503E+02   0.370E+02 -.364E+02 0.540E+02   -.264E+01 0.312E+01 -.363E+01   -.318E-03 0.385E-03 -.365E-03
   -.397E+02 -.488E+02 0.387E+02   0.424E+02 0.521E+02 -.420E+02   -.273E+01 -.330E+01 0.332E+01   0.219E-04 -.340E-03 -.342E-04
   -.397E+02 0.387E+02 -.488E+02   0.424E+02 -.420E+02 0.521E+02   -.273E+01 0.332E+01 -.330E+01   0.219E-04 -.342E-04 -.340E-03
   0.319E+02 -.372E+02 -.372E+02   -.347E+02 0.405E+02 0.405E+02   0.284E+01 -.331E+01 -.331E+01   0.711E-04 -.201E-03 -.201E-03
   0.482E+02 0.363E+02 0.363E+02   -.520E+02 -.392E+02 -.392E+02   0.382E+01 0.292E+01 0.292E+01   0.703E-04 -.292E-03 -.292E-03
   -.393E+02 -.503E+02 0.342E+02   0.421E+02 0.538E+02 -.375E+02   -.280E+01 -.342E+01 0.327E+01   -.366E-04 0.146E-03 0.235E-03
   -.393E+02 0.342E+02 -.503E+02   0.421E+02 -.375E+02 0.538E+02   -.280E+01 0.327E+01 -.342E+01   -.366E-04 0.235E-03 0.146E-03
   0.443E+02 -.382E+02 -.382E+02   -.475E+02 0.411E+02 0.411E+02   0.319E+01 -.294E+01 -.294E+01   -.240E-03 0.127E-03 0.127E-03
   0.482E+02 0.326E+02 0.326E+02   -.518E+02 -.354E+02 -.354E+02   0.356E+01 0.282E+01 0.282E+01   -.268E-04 0.303E-03 0.303E-03
   -.667E+01 -.741E+01 -.741E+01   0.711E+01 0.760E+01 0.760E+01   -.439E+00 -.195E+00 -.195E+00   -.241E-03 0.378E-04 0.378E-04
   -.119E+02 -.892E+01 -.892E+01   0.125E+02 0.921E+01 0.921E+01   -.680E+00 -.291E+00 -.291E+00   0.122E-03 -.940E-04 -.940E-04
   -.710E+01 -.482E+00 -.168E+02   0.740E+01 0.459E+00 0.172E+02   -.306E+00 0.228E-01 -.416E+00   -.249E-03 -.156E-03 0.239E-03
   -.710E+01 -.168E+02 -.482E+00   0.740E+01 0.172E+02 0.459E+00   -.306E+00 -.416E+00 0.228E-01   -.249E-03 0.239E-03 -.156E-03
   0.159E+01 0.150E+02 0.150E+02   -.158E+01 -.151E+02 -.151E+02   -.887E-02 0.130E+00 0.130E+00   -.346E-03 0.195E-03 0.195E-03
   -.493E+01 0.229E+02 0.229E+02   0.503E+01 -.233E+02 -.233E+02   -.988E-01 0.421E+00 0.421E+00   0.226E-03 0.301E-03 0.301E-03
   -.457E+01 0.257E+02 0.232E+02   0.462E+01 -.261E+02 -.236E+02   -.495E-01 0.390E+00 0.476E+00   0.586E-04 -.314E-03 0.334E-03
   -.457E+01 0.232E+02 0.257E+02   0.462E+01 -.236E+02 -.261E+02   -.495E-01 0.476E+00 0.390E+00   0.586E-04 0.334E-03 -.314E-03
   0.359E+01 0.404E+01 0.404E+01   0.178E-13 0.213E-13 0.497E-13   -.359E+01 -.405E+01 -.405E+01   -.919E-03 0.186E-04 0.186E-04

 POSITION                                       TOTAL-FORCE (eV/Angst)
      9.36211      3.30003      3.30003         0.000069      0.000058      0.000058
      9.35895      8.03915      8.03915         0.000018     -0.000067     -0.000067
      0.21926      1.73447      7.57485         0.000060     -0.000849      0.000358
      0.21926      7.57485      1.73447         0.000060      0.000358     -0.000849
      1.89408      2.02009      9.54234         0.000141      0.000139      0.000068
      3.03602      6.80599      0.18487         0.000164     -0.000089      0.000002
      7.78486      2.04062      0.23997        -0.000168      0.000189      0.000059
      6.59388      6.71946      9.43318         0.000076     -0.000105      0.000000
      1.89408      9.54234      2.02009         0.000141      0.000068      0.000139
      3.03602      0.18487      6.80599         0.000164      0.000002     -0.000089
      6.59388      9.43318      6.71946         0.000076      0.000000     -0.000105
      7.78486      0.23997      2.04062        -0.000168      0.000059      0.000189
      1.54424      6.75893      4.48806        -0.000302      0.000036     -0.000189
      2.96031      1.99812      5.09111         0.000044      0.000046      0.000022
      7.83674      6.81477      5.01928         0.000036      0.000009     -0.000020
      6.55997      1.95698      4.63953        -0.000103      0.000141      0.000040
      1.54424      4.48806      6.75893        -0.000302     -0.000189      0.000036
      2.96031      5.09111      1.99812         0.000044      0.000022      0.000046
      6.55997      4.63953      1.95698        -0.000103      0.000040      0.000141
      7.83674      5.01928      6.81477         0.000036     -0.000020      0.000009
      4.48049      3.22736      8.11695        -0.000072     -0.000078      0.000079
      4.48049      8.11695      3.22736        -0.000072      0.000079     -0.000078
      5.09117      2.32549      2.32549         0.000051      0.000003      0.000003
      5.04426      7.08611      7.08611         0.000045     -0.000139     -0.000139
      4.75162      4.88735      4.88735        -0.000333      0.000380      0.000380
      4.88449      9.69919      9.69919        -0.000141     -0.000274     -0.000274
      9.68637      4.84909      0.03449        -0.000212      0.000121     -0.000140
      9.68637      0.03449      4.84909        -0.000212     -0.000140      0.000121
      1.12040      8.59321      6.10717        -0.000121      0.000254     -0.000165
      1.11564      1.30875      3.71959        -0.000115     -0.000187      0.000215
      8.64351      8.47795      3.60194         0.000423      0.000198      0.000111
      8.37029      1.15286      5.96534         0.000325     -0.000128     -0.000267
      8.37029      5.96534      1.15286         0.000325     -0.000267     -0.000128
      8.64351      3.60194      8.47795         0.000423      0.000111      0.000198
      1.12040      6.10717      8.59321        -0.000121     -0.000165      0.000254
      1.11564      3.71959      1.30875        -0.000115      0.000215     -0.000187
      6.00987      1.24798      8.54317        -0.000129     -0.000237      0.000195
      6.00987      8.54317      1.24798        -0.000129      0.000195     -0.000237
      3.60465      1.13399      1.13399         0.000393     -0.000228     -0.000228
      3.75403      8.48542      8.48542         0.000225      0.000099      0.000099
      5.90113      6.14562      3.74563        -0.000297     -0.000246      0.000305
      5.90113      3.74563      6.14562        -0.000297      0.000305     -0.000246
      3.37996      5.96400      5.96400         0.000092     -0.000126     -0.000126
      3.68985      3.64059      3.64059         0.000302      0.000240      0.000240
      7.28699      7.26128      7.26128         0.000033     -0.000017     -0.000017
      7.30950      2.47040      2.47040        -0.000081      0.000048      0.000048
      2.41371      7.32362      2.37815        -0.000045      0.000048     -0.000167
      2.41371      2.37815      7.32362        -0.000045     -0.000167      0.000048
      9.66834      0.14247      0.14247        -0.000004      0.000045      0.000045
      9.55069      5.02574      5.02574        -0.000051      0.000050      0.000050
      4.77399      0.18763      5.00067        -0.000015      0.000107      0.000050
      4.77399      5.00067      0.18763        -0.000015      0.000050      0.000107
    total drift:                               -0.001003     -0.009038     -0.009036

  FREE ENERGIE OF THE ION-ELECTRON SYSTEM (eV)
  free  energy   TOTEN  =      -272.08653252 eV

  energy  without entropy=     -272.08653252  energy(sigma->0) =     -272.08653252

 d Force = 0.7597156E-06[ 0.346E-06, 0.117E-05]  d Energy = 0.1119421E-05-0.360E-06
 d Force = 0.5361000E-02[ 0.536E-02, 0.536E-02]  d Ewald  = 0.5361000E-02-0.327E-10

 stress matrix after NEB project (eV)
     -1.33121      2.87059      2.87059
      2.87059      0.65420     -3.46369
      2.87059     -3.46369      0.65420
  FORCES: max atom, RMS     0.000923    0.000335
  FORCE total and by dimension    0.002416    0.000849
  Stress total and by dimension    7.719037    3.463693
 Conjugate gradient step on ions:
 trial-energy change:   -0.000001  1 .order   -0.000001   -0.000001   -0.000000
  (g-gl).g = 0.658E-06      g.g   = 0.813E-06  gl.gl    = 0.125E-05
 g(Force)  = 0.813E-06   g(Stress)= 0.000E+00 ortho     = 0.154E-06
 gamma     =   0.52822
 trial     =   1.31279
 opt step  =   1.86031  (harmonic =   1.86031) maximal distance =0.00006879
 next E    =  -272.086532   (d E  =  -0.00000)

 reached required accuracy - stopping structural energy minimisation