 vasp.6.4.1 05Apr23 (build Jun 07 2023 15:38:11) complex

 executed on             LinuxIFC date 2023.10.16  22:29:49

 INCAR:
   GGA = PE
   PREC = Accu
   EDIFF = 1.e-6
   EDIFFG = -1.e-3
   ENCUT = 520.
   NELM = 100
   NELMDL = -10
   LASPH = .TRUE.
   LREAL = Auto
   LMAXMIX = 4
   ISPIN = 2
   LDIAG = .TRUE.
   LPLANE = .TRUE.
   IVDW = 12
   SIGMA = 0.03
   ISMEAR = 0
   NSW = 1000    number of steps for IOM
   IBRION = 2    ionic relax: 0-MD 1-quasi-New 2-CG
   ISIF = 2    ionic relaxation + stress tensor calcn.
   LCHARG = .FALSE.
   LWAVE = .FALSE.
   ALGO = F
   KPAR = 1
   NPAR = 4
   POTIM = 0.2

 POTCAR:    PAW_PBE Li_sv_GW 25Mar2010
 POTCAR:    PAW_PBE P_GW 19Mar2012
 POTCAR:    PAW_PBE S_GW 19Mar2012
 POTCAR:    PAW_PBE Cl_GW 19Mar2012
|           W    W    AA    RRRRR   N    N  II  N    N   GGGG   !!!           |
|           W    W   A  A   R    R  NN   N  II  NN   N  G    G  !!!           |
|           W    W  A    A  R    R  N N  N  II  N N  N  G       !!!           |
|           W WW W  AAAAAA  RRRRR   N  N N  II  N  N N  G  GGG   !            |
|           WW  WW  A    A  R   R   N   NN  II  N   NN  G    G                |
|           W    W  A    A  R    R  N    N  II  N    N   GGGG   !!!           |
|     You use a magnetic or noncollinear calculation, but did not specify     |
|     the initial magnetic moment with the MAGMOM tag. Note that a            |
|     default of 1 will be used for all atoms. This ferromagnetic setup       |
|     may break the symmetry of the crystal, in particular it may rule        |
|     out finding an antiferromagnetic solution. Thence, we recommend         |
|     setting the initial magnetic moment manually or verifying carefully     |
|     that this magnetic setup is desired.                                    |

   TITEL  = PAW_PBE Li_sv_GW 25Mar2010
   POMASS =    7.010; ZVAL   =    3.000    mass and valenz
   ENMAX  =  433.699; ENMIN  =  325.274 eV

   TITEL  = PAW_PBE P_GW 19Mar2012
   POMASS =   30.974; ZVAL   =    5.000    mass and valenz
   ENMAX  =  255.040; ENMIN  =  191.280 eV

[...]

   TITEL  = PAW_PBE Cl_GW 19Mar2012
   POMASS =   35.453; ZVAL   =    7.000    mass and valenz
   ENMAX  =  262.472; ENMIN  =  196.854 eV

 Optimization of the real space projectors (new method)

 maximal supplied QI-value         = 25.13
 optimisation between [QCUT,QGAM] = [ 11.56, 23.12] = [ 37.43,149.72] Ry
 Optimized for a Real-space Cutoff    1.28 Angstroem

   l    n(q)    QCUT    max X(q) W(low)/X(q) W(high)/X(q)  e(spline)
   0      9    11.561    87.733    0.11E-03    0.32E-04    0.56E-06
   0      9    11.561    82.800    0.11E-03    0.35E-04    0.56E-06
   0      9    11.561     2.509    0.22E-03    0.42E-04    0.79E-06
   1      8    11.561    12.580    0.94E-04    0.26E-03    0.21E-06
   1      8    11.561     1.319    0.33E-04    0.15E-03    0.19E-06
   2      8    11.561     1.993    0.36E-04    0.89E-04    0.26E-06
 Optimization of the real space projectors (new method)

[...]

   l    n(q)    QCUT    max X(q) W(low)/X(q) W(high)/X(q)  e(spline)
   0     10    11.508     7.541    0.34E-04    0.13E-04    0.69E-07
   0     10    11.508     1.809    0.49E-04    0.27E-04    0.14E-06
   1     10    11.508     4.107    0.27E-05    0.41E-05    0.14E-06
   1     10    11.508     2.196    0.26E-05    0.25E-05    0.22E-06
   2      9    11.508     4.265    0.18E-03    0.11E-03    0.81E-06
   2      9    11.508     1.925    0.97E-04    0.76E-04    0.47E-06
 Optimization of the real space projectors (new method)

 maximal supplied QI-value         = 19.84
 optimisation between [QCUT,QGAM] = [ 11.51, 23.22] = [ 37.09,150.92] Ry
 Optimized for a Real-space Cutoff    1.21 Angstroem

   l    n(q)    QCUT    max X(q) W(low)/X(q) W(high)/X(q)  e(spline)
   0      8    11.508     6.761    0.57E-04    0.57E-04    0.35E-07
   0      8    11.508     1.642    0.14E-03    0.14E-03    0.91E-07
   1      8    11.508     3.519    0.20E-04    0.72E-04    0.47E-07
   1      8    11.508     2.150    0.27E-04    0.11E-03    0.89E-07
   2      7    11.508     2.976    0.19E-03    0.33E-03    0.16E-06
   2      7    11.508     1.494    0.14E-03    0.29E-03    0.14E-06
  PAW_PBE Li_sv_GW 25Mar2010            :
  PAW_PBE P_GW 19Mar2012                :
  PAW_PBE S_GW 19Mar2012                :
  PAW_PBE Cl_GW 19Mar2012               :

 POSCAR: Li24 P4 S20 Cl4
  positions in direct lattice
  velocities in cartesian coordinates
 exchange correlation table for  LEXCH =        8
   RHO(1)=    0.500       N(1)  =     2000
   RHO(2)=  100.500       N(2)  =     4000

 VTST: version 4.1, (05/19/21)

 CHAIN: initializing optimizer

 OPT: Using VASP Conjugate-Gradient optimizer
 CHAIN: Read ICHAIN            0

 POSCAR: Li24 P4 S20 Cl4
  positions in direct lattice
  velocities in cartesian coordinates

 ion  position               nearest neighbor table
   1  0.965  0.336  0.336-
   2  0.983  0.674  0.674-
   3  0.027  0.329  0.709-
   4  0.027  0.709  0.329-
   5  0.309  0.281  0.986-
   6  0.171  0.798  0.035-
   7  0.654  0.265  0.029-
   8  0.829  0.784  0.975-
   9  0.309  0.986  0.281-
  10  0.171  0.035  0.798-
  11  0.829  0.975  0.784-
  12  0.654  0.029  0.265-
  13  0.327  0.807  0.480-
  14  0.230  0.299  0.519-
  15  0.700  0.818  0.522-
  16  0.698  0.213  0.468-
  17  0.327  0.480  0.807-
  18  0.230  0.519  0.299-
  19  0.698  0.468  0.213-
  20  0.700  0.522  0.818-
  21  0.467  0.173  0.673-
  22  0.467  0.673  0.173-
  23  0.966  0.143  0.143-
  24  0.529  0.761  0.761-
  25  0.511  0.499  0.499-  44 2.04  41 2.05  42 2.05  43 2.07
  26  0.504  0.986  0.986-  40 2.05  39 2.05  38 2.05  37 2.05
  27  0.001  0.486  0.008-  34 2.05  33 2.05  35 2.06  36 2.06
  28  0.001  0.008  0.486-  31 2.05  32 2.05  29 2.06  30 2.06
  29  0.120  0.879  0.606-  28 2.06
  30  0.126  0.130  0.363-  28 2.06
  31  0.872  0.896  0.361-  28 2.05
  32  0.889  0.138  0.610-  28 2.05
  33  0.889  0.610  0.138-  27 2.05
  34  0.872  0.361  0.896-  27 2.05
  35  0.120  0.606  0.879-  27 2.06
  36  0.126  0.363  0.130-  27 2.06
  37  0.624  0.097  0.850-  26 2.05
  38  0.624  0.850  0.097-  26 2.05
  39  0.428  0.126  0.126-  26 2.05
  40  0.355  0.880  0.880-  26 2.05
  41  0.626  0.630  0.378-  25 2.05
  42  0.626  0.378  0.630-  25 2.05
  43  0.384  0.621  0.621-  25 2.07
  44  0.408  0.369  0.369-  25 2.04
  45  0.764  0.744  0.744-
  46  0.767  0.242  0.242-
  47  0.254  0.753  0.255-
  48  0.254  0.255  0.753-
  49  0.998  0.972  0.972-
  50  0.045  0.496  0.496-
  51  0.511  0.996  0.482-
  52  0.511  0.482  0.996-

  LATTYP: Found a simple cubic cell.
 ALAT       =     9.6768378671

  Lattice vectors:

 A1 = (   9.6768378671,   0.0000000000,   0.0000000000)
 A2 = (   0.0000000000,   9.6768378671,   0.0000000000)
 A3 = (   0.0000000000,   0.0000000000,   9.6768378671)

Analysis of symmetry for initial positions (statically):
 Subroutine PRICEL returns:
 Original cell was already a primitive cell.

 Routine SETGRP: Setting up the symmetry group for a
 simple cubic supercell.

 Subroutine GETGRP returns: Found  2 space group operations
 (whereof  2 operations were pure point group operations)
 out of a pool of 48 trial point group operations.

The static configuration has the point symmetry C_1h.

Analysis of symmetry for dynamics (positions and initial velocities):
 Subroutine PRICEL returns:
 Original cell was already a primitive cell.

[...]

The dynamic configuration has the point symmetry C_1h.

Analysis of structural, dynamic, and magnetic symmetry:
 Subroutine PRICEL returns:
 Original cell was already a primitive cell.

 Routine SETGRP: Setting up the symmetry group for a
 simple cubic supercell.

 Subroutine GETGRP returns: Found  2 space group operations
 (whereof  2 operations were pure point group operations)
 out of a pool of 48 trial point group operations.

The overall configuration has the point symmetry C_1h.

 Subroutine INISYM returns: Found  2 space group operations
 (whereof  2 operations are pure point group operations),
 and found     1 'primitive' translations

                                     Primitive cell

  volume of cell :     906.1506

  direct lattice vectors                    reciprocal lattice vectors
     9.676837867  0.000000000  0.000000000     0.103339543  0.000000000  0.000000000
     0.000000000  9.676837867  0.000000000     0.000000000  0.103339543  0.000000000
     0.000000000  0.000000000  9.676837867     0.000000000  0.000000000  0.103339543

  length of vectors
     9.676837867  9.676837867  9.676837867     0.103339543  0.103339543  0.103339543

  position of ions in fractional coordinates (direct lattice)
     0.964994305  0.335508834  0.335508834
     0.982531802  0.673816385  0.673816385
     0.026679003  0.328547692  0.709445170
     0.026679003  0.709445170  0.328547692
     0.308898024  0.280890604  0.986216008
     0.171271502  0.797674793  0.034510733
     0.653984000  0.264837737  0.028765865
     0.828699485  0.783549791  0.974708904
     0.308898024  0.986216008  0.280890604
     0.171271502  0.034510733  0.797674793
     0.828699485  0.974708904  0.783549791
     0.653984000  0.028765865  0.264837737
     0.327469762  0.806897187  0.479627018
     0.229752285  0.298890843  0.519373227
     0.699886265  0.818111749  0.521892474
     0.698168243  0.212965170  0.467605513
     0.327469762  0.479627018  0.806897187
     0.229752285  0.519373227  0.298890843
     0.698168243  0.467605513  0.212965170
     0.699886265  0.521892474  0.818111749
     0.466596738  0.173494722  0.672640829
     0.466596738  0.672640829  0.173494722
     0.966498908  0.142657135  0.142657135
     0.529097010  0.760878375  0.760878375
     0.511282459  0.499322947  0.499322947
     0.504495487  0.985815925  0.985815925
     0.001211585  0.485987431  0.007663595
     0.001211585  0.007663595  0.485987431
     0.120307193  0.878808319  0.605981154
     0.125715886  0.129795695  0.363073989
     0.872335015  0.896023477  0.361040903
     0.889089009  0.137972894  0.610443103
     0.889089009  0.610443103  0.137972894
     0.872335015  0.361040903  0.896023477
     0.120307193  0.605981154  0.878808319
     0.125715886  0.363073989  0.129795695
     0.624003833  0.096779819  0.850058155
     0.624003833  0.850058155  0.096779819
     0.428341729  0.125582534  0.125582534
     0.355228061  0.879593940  0.879593940
     0.625607677  0.630072578  0.377888773
     0.625607677  0.377888773  0.630072578
     0.383710049  0.620543475  0.620543475
     0.407849324  0.369284513  0.369284513
     0.763587838  0.743592704  0.743592704
     0.766593161  0.242080761  0.242080761
     0.253783968  0.753235392  0.255256089
     0.253783968  0.255256089  0.753235392
     0.997739246  0.972334156  0.972334156
     0.045390883  0.495656612  0.495656612
     0.511230809  0.996044043  0.482390213
     0.511230809  0.482390213  0.996044043

  ion indices of the primitive-cell ions
   primitive index   ion index
                 1           1
                 2           2
                 3           3
                 4           4
                 5           5
                 6           6
                 7           7
                 8           8
[...]
     17     -42.3525      1.00000
     18     -42.3508      1.00000
     19     -42.3456      1.00000
     20     -42.3447      1.00000
     21     -42.3351      1.00000
     22     -42.3346      1.00000
     23     -42.3319      1.00000
     24     -42.3155      1.00000
     25     -13.0733      1.00000
     26     -13.0483      1.00000
     27     -13.0347      1.00000
     28     -12.9355      1.00000
     29     -12.7130      1.00000
     30     -12.6266      1.00000
     31     -12.5196      1.00000
     32     -12.5148      1.00000
     33     -10.3255      1.00000
     34     -10.2740      1.00000
     35     -10.2636      1.00000
     36     -10.1436      1.00000
     37     -10.0820      1.00000
     38     -10.0370      1.00000
     39     -10.0297      1.00000
     40     -10.0165      1.00000
     41      -9.9967      1.00000
     42      -9.9848      1.00000
     43      -9.9418      1.00000
     44      -9.7964      1.00000
     45      -8.3888      1.00000
     46      -8.3874      1.00000
     47      -8.3546      1.00000
     48      -8.2207      1.00000
     49      -6.1205      1.00000
     50      -5.7789      1.00000
     51      -5.6624      1.00000
     52      -5.6073      1.00000
     53      -3.2462      1.00000
     54      -3.1960      1.00000
     55      -3.1837      1.00000
     56      -2.8568      1.00000
     57      -2.7565      1.00000
     58      -2.6681      1.00000
     59      -2.5772      1.00000
     60      -2.5255      1.00000
[...]
    162       9.1003      0.00000
    163       9.1713      0.00000
    164       9.1874      0.00000
    165       9.2565      0.00000
    166       9.2772      0.00000
    167       9.3415      0.00000
    168       9.4044      0.00000
    169       9.4683      0.00000
    170       9.5538      0.00000
    171       9.6287      0.00000
    172       9.6397      0.00000
    173       9.6859      0.00000
    174       9.7437      0.00000
    175       9.8118      0.00000
    176       9.8835      0.00000

[...]

 soft charge-density along one line, spin component           2
         0         1         2         3         4         5         6         7         8         9
 total charge-density along one line

------------------------ aborting loop because EDIFF is reached ----------------------------------------

         DFTD3 V3.0 Rev 1
 Edisp (eV)  -13.50143

 E6    (eV) :    -8.3202
 E8    (eV) :    -5.1812
 % E8        : 38.38

  FORCE on cell =-STRESS in cart. coord.  units (eV):
  Direction    XX          YY          ZZ          XY          YZ          ZX
  Alpha Z   299.57216   299.57216   299.57216
  Ewald   -3017.46483 -2890.58407 -2890.58407    -5.22989    -6.37988    -5.22989
  Hartree   706.35706   757.07252   757.07252     0.83722   -19.41487     0.83722
  E(xc)    -947.81466  -947.49667  -947.49667    -0.02282     0.08218    -0.02282
  Local   -1406.03428 -1567.41491 -1567.41491     5.27980    27.31578     5.27980
  n-local  1482.19717  1480.72635  1480.83841    -0.85663     1.15373     0.10595
  augment  -357.46608  -356.47865  -356.47865     0.18921     0.11801     0.19300
  Kinetic  3253.28585  3238.60396  3238.76479    -3.36036    -3.22688    -2.06077
  Fock        0.00000     0.00000     0.00000     0.00000     0.00000     0.00000
  vdW       -14.30068   -14.30869   -14.30869    -0.00536    -0.02140    -0.00536
  Total      -1.66828    -0.17155    -0.17155    -2.03574    -0.37355    -2.03574
  in kB      -2.94971    -0.30332    -0.30332    -3.59942    -0.66048    -3.59942

 VOLUME and BASIS-vectors are now :
  energy-cutoff  :      520.00
  volume of cell :      906.15
      direct lattice vectors                 reciprocal lattice vectors
     9.676837867  0.000000000  0.000000000     0.103339543  0.000000000  0.000000000
     0.000000000  9.676837867  0.000000000     0.000000000  0.103339543  0.000000000
     0.000000000  0.000000000  9.676837867     0.000000000  0.000000000  0.103339543

  length of vectors
     9.676837867  9.676837867  9.676837867     0.103339543  0.103339543  0.103339543

 FORCES acting on ions
    electron-ion (+dipol)            ewald-force                    non-local-force                 convergence-correction
   0.115E+02 -.124E+02 -.124E+02   -.126E+02 0.114E+02 0.114E+02   0.109E+01 0.988E+00 0.988E+00   0.772E-04 0.116E-04 0.116E-04
   0.184E+01 0.970E+01 0.970E+01   -.298E+01 -.856E+01 -.856E+01   0.113E+01 -.114E+01 -.114E+01   0.152E-03 0.248E-04 0.248E-04
   0.934E+01 -.761E+01 0.328E+01   -.860E+01 0.621E+01 -.198E+01   -.735E+00 0.141E+01 -.130E+01   0.160E-03 0.787E-04 0.144E-04
   0.934E+01 0.328E+01 -.761E+01   -.860E+01 -.198E+01 0.621E+01   -.735E+00 -.130E+01 0.141E+01   0.160E-03 0.144E-04 0.787E-04
   0.219E+01 -.184E-02 -.421E+01   -.290E+01 -.108E+01 0.370E+01   0.713E+00 0.109E+01 0.504E+00   -.102E-03 0.152E-05 -.398E-04
   -.231E+00 -.465E+01 -.432E+01   0.131E+01 0.393E+01 0.510E+01   -.108E+01 0.722E+00 -.774E+00   0.630E-04 -.551E-04 0.141E-04
   -.113E+01 -.616E+01 0.593E+01   0.207E+01 0.521E+01 -.503E+01   -.942E+00 0.958E+00 -.897E+00   -.195E-03 -.547E-05 -.156E-03
   -.301E+01 0.345E+00 -.576E+01   0.196E+01 -.101E+01 0.521E+01   0.105E+01 0.667E+00 0.548E+00   0.443E-04 0.139E-04 -.411E-04
   0.219E+01 -.421E+01 -.184E-02   -.290E+01 0.370E+01 -.108E+01   0.713E+00 0.504E+00 0.109E+01   -.102E-03 -.398E-04 0.152E-05
   -.231E+00 -.432E+01 -.465E+01   0.131E+01 0.510E+01 0.393E+01   -.108E+01 -.774E+00 0.722E+00   0.630E-04 0.141E-04 -.551E-04
   -.301E+01 -.576E+01 0.345E+00   0.196E+01 0.521E+01 -.101E+01   0.105E+01 0.548E+00 0.667E+00   0.443E-04 -.411E-04 0.139E-04
   -.113E+01 0.593E+01 -.616E+01   0.207E+01 -.503E+01 0.521E+01   -.942E+00 -.897E+00 0.958E+00   -.195E-03 -.156E-03 -.547E-05
   -.480E+01 -.106E+02 -.787E+01   0.369E+01 0.917E+01 0.721E+01   0.111E+01 0.147E+01 0.654E+00   -.397E-04 0.118E-03 0.169E-04
   -.263E+01 0.761E+01 -.251E+01   0.377E+01 -.819E+01 0.315E+01   -.115E+01 0.590E+00 -.641E+00   0.182E-04 -.211E-04 -.932E-04
   0.121E+01 0.897E+00 -.376E+01   -.180E+00 -.202E+01 0.410E+01   -.103E+01 0.112E+01 -.344E+00   -.121E-03 -.846E-04 0.300E-04
   0.790E+01 0.398E+00 -.491E+01   -.648E+01 0.922E+00 0.399E+01   -.143E+01 -.132E+01 0.918E+00   0.543E-04 0.219E-03 -.130E-04
   -.480E+01 -.787E+01 -.106E+02   0.369E+01 0.721E+01 0.917E+01   0.111E+01 0.654E+00 0.147E+01   -.397E-04 0.169E-04 0.118E-03
   -.263E+01 -.251E+01 0.761E+01   0.377E+01 0.315E+01 -.819E+01   -.115E+01 -.641E+00 0.590E+00   0.182E-04 -.932E-04 -.211E-04
   0.790E+01 -.491E+01 0.398E+00   -.648E+01 0.399E+01 0.922E+00   -.143E+01 0.918E+00 -.132E+01   0.543E-04 -.130E-04 0.219E-03
   0.121E+01 -.376E+01 0.897E+00   -.180E+00 0.410E+01 -.202E+01   -.103E+01 -.344E+00 0.112E+01   -.121E-03 0.300E-04 -.846E-04
   0.498E+01 0.108E+02 0.837E+01   -.568E+01 -.985E+01 -.683E+01   0.704E+00 -.961E+00 -.154E+01   -.101E-03 -.498E-05 0.566E-04
   0.498E+01 0.837E+01 0.108E+02   -.568E+01 -.683E+01 -.985E+01   0.704E+00 -.154E+01 -.961E+00   -.101E-03 0.566E-04 -.498E-05
   -.760E+01 0.156E+02 0.156E+02   0.625E+01 -.148E+02 -.148E+02   0.135E+01 -.776E+00 -.776E+00   0.206E-03 0.838E-04 0.838E-04
   0.401E+01 -.819E+00 -.819E+00   -.330E+01 0.480E+00 0.480E+00   -.703E+00 0.338E+00 0.338E+00   0.495E-04 0.252E-04 0.252E-04
   -.120E+02 -.305E+01 -.305E+01   0.122E+02 0.257E+01 0.257E+01   -.203E+00 0.474E+00 0.474E+00   0.723E-04 0.840E-04 0.840E-04
   0.129E+02 0.794E+01 0.794E+01   -.128E+02 -.787E+01 -.787E+01   -.125E+00 -.637E-01 -.637E-01   -.202E-03 -.397E-04 -.397E-04
   -.638E+01 -.184E+01 0.835E+01   0.599E+01 0.168E+01 -.843E+01   0.382E+00 0.161E+00 0.745E-01   0.321E-03 0.177E-04 -.992E-04
   -.638E+01 0.835E+01 -.184E+01   0.599E+01 -.843E+01 0.168E+01   0.382E+00 0.745E-01 0.161E+00   0.321E-03 -.992E-04 0.177E-04
   -.432E+02 0.424E+02 -.399E+02   0.464E+02 -.455E+02 0.432E+02   -.322E+01 0.305E+01 -.327E+01   0.125E-03 -.130E-03 0.319E-04
   -.531E+02 -.145E+02 0.406E+02   0.560E+02 0.173E+02 -.439E+02   -.289E+01 -.282E+01 0.323E+01   0.174E-03 0.283E-04 -.179E-04
   0.348E+02 0.410E+02 0.536E+02   -.375E+02 -.437E+02 -.575E+02   0.273E+01 0.271E+01 0.388E+01   0.248E-03 -.329E-04 0.245E-03
   0.349E+02 -.476E+02 -.456E+02   -.379E+02 0.508E+02 0.487E+02   0.298E+01 -.320E+01 -.304E+01   0.166E-03 -.641E-04 0.566E-05
   0.349E+02 -.456E+02 -.476E+02   -.379E+02 0.487E+02 0.508E+02   0.298E+01 -.304E+01 -.320E+01   0.166E-03 0.566E-05 -.641E-04
   0.348E+02 0.536E+02 0.410E+02   -.375E+02 -.575E+02 -.437E+02   0.273E+01 0.388E+01 0.271E+01   0.248E-03 0.245E-03 -.329E-04
   -.432E+02 -.399E+02 0.424E+02   0.464E+02 0.432E+02 -.455E+02   -.322E+01 -.327E+01 0.305E+01   0.125E-03 0.319E-04 -.130E-03
   -.531E+02 0.406E+02 -.145E+02   0.560E+02 -.439E+02 0.173E+02   -.289E+01 0.323E+01 -.282E+01   0.174E-03 -.179E-04 0.283E-04
   -.375E+02 -.321E+02 0.518E+02   0.404E+02 0.350E+02 -.552E+02   -.293E+01 -.293E+01 0.334E+01   -.159E-03 0.821E-04 -.184E-03
   -.375E+02 0.518E+02 -.321E+02   0.404E+02 -.552E+02 0.350E+02   -.293E+01 0.334E+01 -.293E+01   -.159E-03 -.184E-03 0.821E-04
   0.432E+02 -.487E+02 -.487E+02   -.439E+02 0.522E+02 0.522E+02   0.672E+00 -.353E+01 -.353E+01   -.234E-03 -.462E-04 -.462E-04
   0.495E+02 0.356E+02 0.356E+02   -.527E+02 -.384E+02 -.384E+02   0.318E+01 0.286E+01 0.286E+01   -.102E-03 0.342E-04 0.342E-04
   -.546E+02 -.404E+02 0.238E+02   0.576E+02 0.437E+02 -.265E+02   -.303E+01 -.334E+01 0.269E+01   -.858E-04 0.910E-04 0.118E-03
   -.546E+02 0.238E+02 -.404E+02   0.576E+02 -.265E+02 0.437E+02   -.303E+01 0.269E+01 -.334E+01   -.858E-04 0.118E-03 0.910E-04
   0.473E+02 -.377E+02 -.377E+02   -.511E+02 0.403E+02 0.403E+02   0.387E+01 -.269E+01 -.269E+01   -.224E-04 -.687E-04 -.687E-04
   0.107E+02 0.590E+02 0.590E+02   -.118E+02 -.628E+02 -.628E+02   0.105E+01 0.380E+01 0.380E+01   -.360E-03 -.546E-05 -.546E-05
   -.465E+01 0.164E+02 0.164E+02   0.488E+01 -.166E+02 -.166E+02   -.223E+00 0.234E+00 0.234E+00   -.346E-05 -.108E-03 -.108E-03
   0.929E+01 0.519E+00 0.519E+00   -.958E+01 -.720E+00 -.720E+00   0.289E+00 0.200E+00 0.200E+00   0.192E-03 0.337E-03 0.337E-03
   0.888E+00 -.728E+01 0.161E+02   -.919E+00 0.736E+01 -.163E+02   0.299E-01 -.813E-01 0.253E+00   0.639E-04 0.725E-04 -.142E-03
   0.888E+00 0.161E+02 -.728E+01   -.919E+00 -.163E+02 0.736E+01   0.299E-01 0.253E+00 -.813E-01   0.639E-04 -.142E-03 0.725E-04
   -.123E+02 -.199E+02 -.199E+02   0.123E+02 0.202E+02 0.202E+02   -.734E-01 -.303E+00 -.303E+00   0.233E-03 -.447E-03 -.447E-03
   0.359E+02 -.258E+02 -.258E+02   -.361E+02 0.263E+02 0.263E+02   0.189E+00 -.461E+00 -.461E+00   0.142E-03 -.111E-03 -.111E-03
   0.182E+02 -.437E+01 -.187E+02   -.185E+02 0.451E+01 0.191E+02   0.266E+00 -.140E+00 -.318E+00   -.283E-03 -.458E-03 0.117E-03
   0.182E+02 -.187E+02 -.437E+01   -.185E+02 0.191E+02 0.451E+01   0.266E+00 -.318E+00 -.140E+00   -.283E-03 0.117E-03 -.458E-03
   0.545E+01 -.307E+01 -.307E+01   -.711E-14 -.568E-13 0.124E-13   -.544E+01 0.306E+01 0.306E+01   0.903E-03 -.496E-03 -.496E-03

 POSITION                                       TOTAL-FORCE (eV/Angst)
      9.33800      3.24674      3.24674        -0.000448      0.000212      0.000212
      9.50782      6.52046      6.52046         0.000001      0.000071      0.000071
      0.25811      3.17927      6.86503        -0.000309     -0.000066     -0.000369
      0.25811      6.86503      3.17927        -0.000309     -0.000369     -0.000066
      2.98923      2.71820      9.54343         0.000173      0.000226      0.000144
      1.65732      7.71899      0.33403        -0.000125      0.000193      0.000200
      6.32864      2.56268      0.27825         0.000402     -0.000241     -0.000274
      8.01919      7.58227      9.43209         0.000048     -0.000028      0.000105
      2.98923      9.54343      2.71820         0.000173      0.000144      0.000226
      1.65732      0.33403      7.71899        -0.000125      0.000200      0.000193
      8.01919      9.43209      7.58227         0.000048      0.000105     -0.000028
      6.32864      0.27825      2.56268         0.000402     -0.000274     -0.000241
      3.16879      7.80819      4.64135        -0.000223     -0.000006      0.000246
      2.22332      2.89233      5.02587         0.000087      0.000072      0.000006
      6.77274      7.91675      5.05026         0.000033      0.000038     -0.000026
      6.75580      2.06067      4.52485        -0.000781     -0.000467     -0.000414
      3.16879      4.64135      7.80819        -0.000223      0.000246     -0.000006
      2.22332      5.02587      2.89233         0.000087      0.000006      0.000072
      6.75580      4.52485      2.06067        -0.000781     -0.000414     -0.000467
      6.77274      5.05026      7.91675         0.000033     -0.000026      0.000038
      4.51516      1.67899      6.50906        -0.000047      0.000318      0.000107
      4.51516      6.50906      1.67899        -0.000047      0.000107      0.000318
      9.35274      1.38052      1.38052         0.000169      0.000215      0.000215
      5.12004      7.36299      7.36299         0.000142      0.000248      0.000248
      4.94766      4.83190      4.83190         0.000607     -0.000197     -0.000197
      4.88184      9.53957      9.53957         0.000296     -0.000024     -0.000024
      0.01171      4.70282      0.07414         0.000299     -0.000053      0.000084
      0.01171      0.07414      4.70282         0.000299      0.000084     -0.000053
      1.16423      8.50410      5.86408        -0.000125      0.000149      0.000092
      1.21652      1.25607      3.51343         0.000125     -0.000020     -0.000012
      8.44148      8.67066      3.49370         0.000232     -0.000112      0.000121
      8.60349      1.33515      5.90702        -0.000140     -0.000174     -0.000074
      8.60349      5.90702      1.33515        -0.000140     -0.000074     -0.000174
      8.44148      3.49370      8.67066         0.000232      0.000121     -0.000112
      1.16423      5.86408      8.50410        -0.000125      0.000092      0.000149
      1.21652      3.51343      1.25607         0.000125     -0.000012     -0.000020
      6.03837      0.93647      8.22582        -0.000154     -0.000076     -0.000109
      6.03837      8.22582      0.93647        -0.000154     -0.000109     -0.000076
      4.14502      1.21525      1.21525        -0.000063     -0.000088     -0.000088
      3.43741      8.51168      8.51168        -0.000006      0.000148      0.000148
      6.05403      6.09707      3.65673         0.000043      0.000091      0.000087
      6.05403      3.65673      6.09707         0.000043      0.000087      0.000091
      3.71322      6.00493      6.00493         0.000379     -0.000080     -0.000080
      3.94679      3.57350      3.57350        -0.000108      0.000142      0.000142
      7.38914      7.19562      7.19562         0.000010      0.000056      0.000056
      7.41818      2.34250      2.34250        -0.000021      0.000013      0.000013
      2.45580      7.28894      2.47013        -0.000106     -0.000050      0.000214
      2.45580      2.47013      7.28894        -0.000106      0.000214     -0.000050
      9.65495      9.40924      9.40924        -0.000126     -0.000315     -0.000315
      0.43925      4.79645      4.79645         0.000056     -0.000126     -0.000126
      4.94709      9.63863      4.66800         0.000123     -0.000116     -0.000080
      4.94709      4.66800      9.63863         0.000123     -0.000080     -0.000116
    total drift:                                0.001499     -0.009840     -0.009853

  FREE ENERGIE OF THE ION-ELECTRON SYSTEM (eV)
  free  energy   TOTEN  =      -272.16041389 eV

  energy  without entropy=     -272.16041389  energy(sigma->0) =     -272.16041389

 d Force = 0.5629109E-06[ 0.392E-06, 0.733E-06]  d Energy = 0.1117908E-05-0.555E-06
 d Force =-0.3654844E-02[-0.366E-02,-0.365E-02]  d Ewald  =-0.3654844E-02-0.546E-11

 stress matrix after NEB project (eV)
     -1.66828     -2.03574     -2.03574
     -2.03574     -0.17155     -0.37355
     -2.03574     -0.37355     -0.17155
  FORCES: max atom, RMS     0.001000    0.000353
  FORCE total and by dimension    0.002548    0.000781
  Stress total and by dimension    4.438253    2.035743
 Conjugate gradient step on ions:
 trial-energy change:   -0.000001  1 .order   -0.000001   -0.000001   -0.000000
  (g-gl).g = 0.661E-06      g.g   = 0.638E-06  gl.gl    = 0.701E-06
 g(Force)  = 0.638E-06   g(Stress)= 0.000E+00 ortho     =-0.229E-07
 gamma     =   0.94241
 trial     =   1.19015
 opt step  =   2.55882  (harmonic =   2.55882) maximal distance =0.00008408
 next E    =  -272.160414   (d E  =  -0.00000)

 reached required accuracy - stopping structural energy minimisation