 vasp.6.4.1 05Apr23 (build Jun 07 2023 15:38:11) complex

 executed on             LinuxIFC date 2023.10.16  22:46:17

 INCAR:
   GGA = PE
   PREC = Accu
   EDIFF = 1.e-6
   EDIFFG = -1.e-3
   ENCUT = 520.
   NELM = 100
   NELMDL = -10
   LASPH = .TRUE.
   LREAL = Auto
   LMAXMIX = 4
   ISPIN = 2
   LDIAG = .TRUE.
   LPLANE = .TRUE.
   IVDW = 12
   SIGMA = 0.03
   ISMEAR = 0
   NSW = 1000    number of steps for IOM
   IBRION = 2    ionic relax: 0-MD 1-quasi-New 2-CG
   ISIF = 2    ionic relaxation + stress tensor calcn.
   LCHARG = .FALSE.
   LWAVE = .FALSE.
   ALGO = F
   KPAR = 1
   NPAR = 4
   POTIM = 0.2

 POTCAR:    PAW_PBE Li_sv_GW 25Mar2010
 POTCAR:    PAW_PBE P_GW 19Mar2012
 POTCAR:    PAW_PBE S_GW 19Mar2012
 POTCAR:    PAW_PBE Cl_GW 19Mar2012
|           W    W    AA    RRRRR   N    N  II  N    N   GGGG   !!!           |
|           W    W   A  A   R    R  NN   N  II  NN   N  G    G  !!!           |
|           W    W  A    A  R    R  N N  N  II  N N  N  G       !!!           |
|           W WW W  AAAAAA  RRRRR   N  N N  II  N  N N  G  GGG   !            |
|           WW  WW  A    A  R   R   N   NN  II  N   NN  G    G                |
|           W    W  A    A  R    R  N    N  II  N    N   GGGG   !!!           |
|     You use a magnetic or noncollinear calculation, but did not specify     |
|     the initial magnetic moment with the MAGMOM tag. Note that a            |
|     default of 1 will be used for all atoms. This ferromagnetic setup       |
|     may break the symmetry of the crystal, in particular it may rule        |
|     out finding an antiferromagnetic solution. Thence, we recommend         |
|     setting the initial magnetic moment manually or verifying carefully     |
|     that this magnetic setup is desired.                                    |

   TITEL  = PAW_PBE Li_sv_GW 25Mar2010
   POMASS =    7.010; ZVAL   =    3.000    mass and valenz
   ENMAX  =  433.699; ENMIN  =  325.274 eV

   TITEL  = PAW_PBE P_GW 19Mar2012
   POMASS =   30.974; ZVAL   =    5.000    mass and valenz
   ENMAX  =  255.040; ENMIN  =  191.280 eV

[...]

   TITEL  = PAW_PBE Cl_GW 19Mar2012
   POMASS =   35.453; ZVAL   =    7.000    mass and valenz
   ENMAX  =  262.472; ENMIN  =  196.854 eV

 Optimization of the real space projectors (new method)

 maximal supplied QI-value         = 25.13
 optimisation between [QCUT,QGAM] = [ 11.56, 23.12] = [ 37.43,149.72] Ry
 Optimized for a Real-space Cutoff    1.28 Angstroem

   l    n(q)    QCUT    max X(q) W(low)/X(q) W(high)/X(q)  e(spline)
   0      9    11.561    87.733    0.11E-03    0.32E-04    0.56E-06
   0      9    11.561    82.800    0.11E-03    0.35E-04    0.56E-06
   0      9    11.561     2.509    0.22E-03    0.42E-04    0.79E-06
   1      8    11.561    12.580    0.94E-04    0.26E-03    0.21E-06
   1      8    11.561     1.319    0.33E-04    0.15E-03    0.19E-06
   2      8    11.561     1.993    0.36E-04    0.89E-04    0.26E-06
 Optimization of the real space projectors (new method)

[...]

   l    n(q)    QCUT    max X(q) W(low)/X(q) W(high)/X(q)  e(spline)
   0     10    11.508     7.541    0.34E-04    0.13E-04    0.69E-07
   0     10    11.508     1.809    0.49E-04    0.27E-04    0.14E-06
   1     10    11.508     4.107    0.27E-05    0.41E-05    0.14E-06
   1     10    11.508     2.196    0.26E-05    0.25E-05    0.22E-06
   2      9    11.508     4.265    0.18E-03    0.11E-03    0.81E-06
   2      9    11.508     1.925    0.97E-04    0.76E-04    0.47E-06
 Optimization of the real space projectors (new method)

 maximal supplied QI-value         = 19.84
 optimisation between [QCUT,QGAM] = [ 11.51, 23.22] = [ 37.09,150.92] Ry
 Optimized for a Real-space Cutoff    1.21 Angstroem

   l    n(q)    QCUT    max X(q) W(low)/X(q) W(high)/X(q)  e(spline)
   0      8    11.508     6.761    0.57E-04    0.57E-04    0.35E-07
   0      8    11.508     1.642    0.14E-03    0.14E-03    0.91E-07
   1      8    11.508     3.519    0.20E-04    0.72E-04    0.47E-07
   1      8    11.508     2.150    0.27E-04    0.11E-03    0.89E-07
   2      7    11.508     2.976    0.19E-03    0.33E-03    0.16E-06
   2      7    11.508     1.494    0.14E-03    0.29E-03    0.14E-06
  PAW_PBE Li_sv_GW 25Mar2010            :
  PAW_PBE P_GW 19Mar2012                :
  PAW_PBE S_GW 19Mar2012                :
  PAW_PBE Cl_GW 19Mar2012               :

 POSCAR: Li24 P4 S20 Cl4
  positions in direct lattice
  velocities in cartesian coordinates
 exchange correlation table for  LEXCH =        8
   RHO(1)=    0.500       N(1)  =     2000
   RHO(2)=  100.500       N(2)  =     4000

 VTST: version 4.1, (05/19/21)

 CHAIN: initializing optimizer

 OPT: Using VASP Conjugate-Gradient optimizer
 CHAIN: Read ICHAIN            0

 POSCAR: Li24 P4 S20 Cl4
  positions in direct lattice
  velocities in cartesian coordinates

 ion  position               nearest neighbor table
   1  0.993  0.184  0.197-
   2  0.954  0.833  0.818-
   3  0.027  0.199  0.780-
   4  0.020  0.678  0.306-
   5  0.220  0.199  0.973-
   6  0.182  0.833  0.046-
   7  0.803  0.184  0.007-
   8  0.694  0.678  0.980-
   9  0.302  0.977  0.330-
  10  0.325  0.028  0.675-
  11  0.670  0.977  0.698-
  12  0.685  0.030  0.315-
  13  0.201  0.691  0.491-
  14  0.194  0.324  0.517-
  15  0.708  0.778  0.520-
  16  0.829  0.301  0.462-
  17  0.241  0.480  0.759-
  18  0.321  0.539  0.172-
  19  0.772  0.470  0.228-  46 2.22
  20  0.828  0.539  0.679-
  21  0.483  0.324  0.806-
  22  0.480  0.778  0.292-
  23  0.538  0.301  0.171-
  24  0.509  0.691  0.799-
  25  0.511  0.485  0.489-  42 2.04  44 2.04  41 2.06  43 2.07
  26  0.498  0.995  0.003-  38 2.04  40 2.05  39 2.05  37 2.06
  27  0.007  0.506  0.993-  36 2.05  34 2.05  35 2.05  33 2.06
  28  0.997  0.995  0.502-  31 2.04  29 2.05  32 2.05  30 2.06
  29  0.120  0.880  0.630-  28 2.05
  30  0.122  0.126  0.391-  28 2.06
  31  0.881  0.876  0.372-  28 2.04
  32  0.865  0.113  0.619-  28 2.05
  33  0.888  0.637  0.112-  27 2.06
  34  0.883  0.385  0.871-  27 2.05
  35  0.121  0.643  0.879-  27 2.05
  36  0.129  0.385  0.117-  27 2.05
  37  0.609  0.126  0.878-  26 2.06
  38  0.628  0.876  0.119-  26 2.04
  39  0.381  0.113  0.135-  26 2.05
  40  0.370  0.880  0.881-  26 2.05
  41  0.633  0.608  0.367-  25 2.06
  42  0.638  0.371  0.613-  25 2.04
  43  0.387  0.608  0.613-  25 2.07
  44  0.387  0.371  0.363-  25 2.04
  45  0.737  0.751  0.753-
  46  0.763  0.241  0.237-  19 2.22
  47  0.247  0.751  0.263-
  48  0.258  0.250  0.742-
  49  0.015  0.037  0.985-
  50  0.007  0.502  0.495-
  51  0.512  0.961  0.489-
  52  0.505  0.502  0.993-

  LATTYP: Found a simple cubic cell.
 ALAT       =     9.6895115921

  Lattice vectors:

 A1 = (   9.6895115921,   0.0000000000,   0.0000000000)
 A2 = (   0.0000000000,   9.6895115921,   0.0000000000)
 A3 = (   0.0000000000,   0.0000000000,   9.6895115921)

Analysis of symmetry for initial positions (statically):
 Subroutine PRICEL returns:
 Original cell was already a primitive cell.

 Routine SETGRP: Setting up the symmetry group for a
 simple cubic supercell.

 Subroutine GETGRP returns: Found  2 space group operations
 (whereof  1 operations were pure point group operations)
 out of a pool of 48 trial point group operations.

The static configuration has the point symmetry C_1 .
 The point group associated with its full space group is C_1h.

Analysis of symmetry for dynamics (positions and initial velocities):
 Subroutine PRICEL returns:
 Original cell was already a primitive cell.

[...]

The dynamic configuration has the point symmetry C_1 .
 The point group associated with its full space group is C_1h.

Analysis of structural, dynamic, and magnetic symmetry:
 Subroutine PRICEL returns:
 Original cell was already a primitive cell.

 Routine SETGRP: Setting up the symmetry group for a
 simple cubic supercell.

 Subroutine GETGRP returns: Found  2 space group operations
 (whereof  1 operations were pure point group operations)
 out of a pool of 48 trial point group operations.

The overall configuration has the point symmetry C_1 .
 The point group associated with its full space group is C_1h.

 Subroutine INISYM returns: Found  2 space group operations
 (whereof  1 operations are pure point group operations),
 and found     1 'primitive' translations

                                     Primitive cell

  volume of cell :     909.7156

  direct lattice vectors                    reciprocal lattice vectors
     9.689511592  0.000000000  0.000000000     0.103204376  0.000000000  0.000000000
     0.000000000  9.689511592  0.000000000     0.000000000  0.103204376  0.000000000
     0.000000000  0.000000000  9.689511592     0.000000000  0.000000000  0.103204376

  length of vectors
     9.689511592  9.689511592  9.689511592     0.103204376  0.103204376  0.103204376

  position of ions in fractional coordinates (direct lattice)
     0.993410404  0.184019993  0.196649592
     0.954245468  0.832887619  0.817789496
     0.026844879  0.198532223  0.780409547
     0.020028319  0.678166036  0.305807471
     0.219634054  0.198532223  0.973198722
     0.182254105  0.832887619  0.045798133
     0.803394009  0.184019993  0.006633197
     0.694236130  0.678166036  0.980015282
     0.302014558  0.976795160  0.330396112
     0.324731041  0.027622384  0.675312560
     0.669647489  0.976795160  0.698029043
     0.684719091  0.030396798  0.315324510
     0.201244753  0.691459200  0.490839654
     0.193738645  0.324153765  0.517185452
     0.708057775  0.777607080  0.519613331
     0.829472053  0.301078936  0.462248989
     0.241086031  0.480140032  0.758957570
     0.321105676  0.538880847  0.172233147
     0.771706471  0.469617822  0.228337130
     0.827810454  0.538880847  0.678937925
     0.482858149  0.324153765  0.806304956
     0.480430270  0.777607080  0.291985826
     0.537794612  0.301078936  0.170571548
     0.509203947  0.691459200  0.798798848
     0.510550983  0.484714874  0.489492618
     0.497585652  0.995068813  0.003155466
     0.006778134  0.505908177  0.993265467
     0.996888135  0.995068813  0.502457950
     0.119536396  0.879662700  0.630268473
     0.122137788  0.125710434  0.390893714
     0.881491489  0.876411919  0.371569216
     0.864850273  0.113290995  0.618850850
     0.888329156  0.636862419  0.111714445
     0.883284534  0.385363060  0.870743579
     0.120691150  0.643195964  0.879352451
     0.129300022  0.385363060  0.116759067
     0.609149887  0.125710434  0.877905813
     0.628474385  0.876411919  0.118552112
     0.381192751  0.113290995  0.135193328
     0.369775128  0.879662700  0.880507205
     0.633353586  0.607510538  0.366690015
     0.637501754  0.371212759  0.613046835
     0.387388976  0.607797568  0.612654626
     0.386996766  0.371212759  0.362541847
     0.737431764  0.751120542  0.753262530
     0.763252938  0.240586149  0.236790663
     0.246781071  0.751120542  0.262611837
     0.258017813  0.250143520  0.742025788
     0.015140902  0.036862071  0.984902699
     0.007300780  0.502253563  0.495496538
     0.511527910  0.961201538  0.488515691
     0.504547063  0.502253563  0.992742821

  ion indices of the primitive-cell ions
   primitive index   ion index
                 1           1
[...]
     17     -42.4110      1.00000
     18     -42.4108      1.00000
     19     -42.4036      1.00000
     20     -42.3884      1.00000
     21     -42.3796      1.00000
     22     -42.3655      1.00000
     23     -42.3626      1.00000
     24     -42.3216      1.00000
     25     -13.1118      1.00000
     26     -13.0765      1.00000
     27     -13.0615      1.00000
     28     -13.0614      1.00000
     29     -12.6935      1.00000
     30     -12.6036      1.00000
     31     -12.4639      1.00000
     32     -12.4611      1.00000
     33     -10.3709      1.00000
     34     -10.3081      1.00000
     35     -10.3064      1.00000
     36     -10.2124      1.00000
     37     -10.1557      1.00000
     38     -10.0809      1.00000
     39     -10.0748      1.00000
     40     -10.0383      1.00000
     41     -10.0238      1.00000
     42     -10.0134      1.00000
     43      -9.9977      1.00000
     44      -9.9808      1.00000
     45      -8.4927      1.00000
     46      -8.4246      1.00000
     47      -8.3687      1.00000
     48      -8.3658      1.00000
     49      -6.2081      1.00000
     50      -5.7935      1.00000
     51      -5.7231      1.00000
     52      -5.7159      1.00000
     53      -3.3148      1.00000
     54      -3.2615      1.00000
     55      -3.2539      1.00000
     56      -2.9211      1.00000
     57      -2.7746      1.00000
     58      -2.7302      1.00000
     59      -2.6101      1.00000
     60      -2.5594      1.00000
[...]
    162       9.0114      0.00000
    163       9.0381      0.00000
    164       9.0991      0.00000
    165       9.2026      0.00000
    166       9.2141      0.00000
    167       9.2493      0.00000
    168       9.3361      0.00000
    169       9.4639      0.00000
    170       9.4725      0.00000
    171       9.5266      0.00000
    172       9.5755      0.00000
    173       9.5896      0.00000
    174       9.6440      0.00000
    175       9.7082      0.00000
    176       9.7583      0.00000

[...]

 soft charge-density along one line, spin component           2
         0         1         2         3         4         5         6         7         8         9
 total charge-density along one line

------------------------ aborting loop because EDIFF is reached ----------------------------------------

         DFTD3 V3.0 Rev 1
 Edisp (eV)  -13.44537

 E6    (eV) :    -8.2850
 E8    (eV) :    -5.1603
 % E8        : 38.38

  FORCE on cell =-STRESS in cart. coord.  units (eV):
  Direction    XX          YY          ZZ          XY          YZ          ZX
  Alpha Z   298.39819   298.39819   298.39819
  Ewald   -2909.82941 -2956.92322 -2909.82941   -16.64784    16.64784    13.26879
  Hartree   753.35792   724.72557   753.35792    -6.23174     6.23174    -0.75883
  E(xc)    -947.73814  -947.75915  -947.73814    -0.02140     0.02140     0.00110
  Local   -1547.41572 -1476.47803 -1547.41572    21.92800   -21.92800    -6.45220
  n-local  1481.00652  1481.92326  1481.05801    -0.87211    -0.17714     0.01261
  augment  -356.66639  -356.80013  -356.66638     0.07474    -0.07198     0.08978
  Kinetic  3243.59646  3246.12864  3243.66589    -0.84692    -0.68734    -3.49447
  Fock        0.00000     0.00000     0.00000     0.00000     0.00000     0.00000
  vdW       -14.25169   -14.26725   -14.25169     0.00833    -0.00833     0.02551
  Total       0.51821    -1.05211     0.51821    -1.31855     1.31855     2.69222
  in kB       0.91267    -1.85297     0.91267    -2.32221     2.32221     4.74150

 VOLUME and BASIS-vectors are now :
  energy-cutoff  :      520.00
  volume of cell :      909.72
      direct lattice vectors                 reciprocal lattice vectors
     9.689511592  0.000000000  0.000000000     0.103204376  0.000000000  0.000000000
     0.000000000  9.689511592  0.000000000     0.000000000  0.103204376  0.000000000
     0.000000000  0.000000000  9.689511592     0.000000000  0.000000000  0.103204376

  length of vectors
     9.689511592  9.689511592  9.689511592     0.103204376  0.103204376  0.103204376

 FORCES acting on ions
    electron-ion (+dipol)            ewald-force                    non-local-force                 convergence-correction
   -.506E+01 0.781E+01 -.255E+01   0.419E+01 -.705E+01 0.387E+01   0.861E+00 -.763E+00 -.132E+01   0.123E-03 0.223E-04 -.439E-04
   0.413E+01 -.686E+01 -.126E+02   -.508E+01 0.553E+01 0.111E+02   0.953E+00 0.133E+01 0.144E+01   -.340E-04 -.517E-04 -.929E-04
   0.281E+01 -.779E+00 0.646E+01   -.213E+01 0.148E+01 -.720E+01   -.682E+00 -.708E+00 0.740E+00   -.512E-04 -.448E-04 0.323E-04
   0.256E+01 0.422E+01 -.316E+01   -.202E+01 -.312E+01 0.190E+01   -.541E+00 -.110E+01 0.126E+01   -.604E-04 0.141E-04 -.890E-04
   -.646E+01 -.779E+00 -.281E+01   0.720E+01 0.148E+01 0.213E+01   -.740E+00 -.708E+00 0.682E+00   -.323E-04 -.448E-04 0.512E-04
   0.126E+02 -.686E+01 -.413E+01   -.111E+02 0.553E+01 0.508E+01   -.144E+01 0.133E+01 -.953E+00   0.929E-04 -.517E-04 0.340E-04
   0.255E+01 0.781E+01 0.506E+01   -.387E+01 -.705E+01 -.419E+01   0.132E+01 -.763E+00 -.861E+00   0.439E-04 0.223E-04 -.123E-03
   0.316E+01 0.422E+01 -.256E+01   -.190E+01 -.312E+01 0.202E+01   -.126E+01 -.110E+01 0.541E+00   0.890E-04 0.141E-04 0.604E-04
   -.218E+01 -.963E+01 -.750E+01   0.798E+00 0.902E+01 0.642E+01   0.138E+01 0.609E+00 0.109E+01   -.662E-05 -.329E-05 -.118E-03
   -.140E+02 -.265E+01 0.140E+02   0.126E+02 0.361E+01 -.126E+02   0.139E+01 -.953E+00 -.139E+01   -.116E-03 -.368E-04 0.116E-03
   0.750E+01 -.963E+01 0.218E+01   -.642E+01 0.902E+01 -.798E+00   -.109E+01 0.609E+00 -.138E+01   0.118E-03 -.329E-05 0.662E-05
   0.490E+01 -.988E+01 -.490E+01   -.381E+01 0.108E+02 0.381E+01   -.110E+01 -.912E+00 0.110E+01   -.810E-04 -.156E-04 0.810E-04
   0.642E+01 0.451E+01 -.728E+01   -.498E+01 -.350E+01 0.654E+01   -.144E+01 -.101E+01 0.725E+00   -.580E-04 0.562E-04 0.847E-04
   0.155E+01 -.381E+01 0.337E+01   -.823E+00 0.249E+01 -.286E+01   -.722E+00 0.132E+01 -.502E+00   0.356E-04 0.325E-04 -.288E-04
   -.532E+01 0.160E+01 -.203E+01   0.606E+01 -.255E+01 0.279E+01   -.747E+00 0.955E+00 -.757E+00   0.235E-05 0.117E-03 -.209E-04
   -.515E+01 -.699E+01 0.237E-02   0.386E+01 0.564E+01 -.595E+00   0.129E+01 0.135E+01 0.592E+00   -.134E-03 -.122E-05 0.673E-04
   0.259E+01 -.410E+01 -.259E+01   -.246E+01 0.321E+01 0.246E+01   -.122E+00 0.887E+00 0.122E+00   -.438E-04 -.191E-04 0.438E-04
   -.490E+01 -.138E+01 0.844E+01   0.377E+01 0.216E+01 -.736E+01   0.113E+01 -.774E+00 -.108E+01   0.134E-04 -.403E-04 -.709E-05
   -.212E+00 0.112E+01 0.212E+00   0.248E+00 -.191E+01 -.248E+00   -.337E-01 0.782E+00 0.337E-01   0.907E-04 0.681E-04 -.907E-04
   -.844E+01 -.138E+01 0.490E+01   0.736E+01 0.216E+01 -.377E+01   0.108E+01 -.774E+00 -.113E+01   0.709E-05 -.402E-04 -.134E-04
   -.337E+01 -.381E+01 -.155E+01   0.286E+01 0.249E+01 0.823E+00   0.502E+00 0.132E+01 0.722E+00   0.288E-04 0.325E-04 -.356E-04
   0.203E+01 0.160E+01 0.532E+01   -.279E+01 -.255E+01 -.606E+01   0.757E+00 0.955E+00 0.747E+00   0.209E-04 0.117E-03 -.235E-05
   -.237E-02 -.699E+01 0.515E+01   0.595E+00 0.564E+01 -.386E+01   -.592E+00 0.135E+01 -.129E+01   -.673E-04 -.122E-05 0.134E-03
   0.728E+01 0.451E+01 -.642E+01   -.654E+01 -.350E+01 0.498E+01   -.725E+00 -.101E+01 0.144E+01   -.847E-04 0.562E-04 0.580E-04
   0.274E+01 0.167E+02 -.274E+01   -.251E+01 -.177E+02 0.251E+01   -.229E+00 0.985E+00 0.229E+00   0.168E-03 -.292E-04 -.168E-03
   -.374E+01 0.420E+01 0.320E+01   0.363E+01 -.452E+01 -.302E+01   0.111E+00 0.319E+00 -.180E+00   -.150E-03 -.384E-04 0.431E-04
   -.252E+01 0.251E+01 0.252E+01   0.271E+01 -.242E+01 -.271E+01   -.189E+00 -.792E-01 0.189E+00   0.178E-05 0.229E-04 -.178E-05
   -.320E+01 0.420E+01 0.374E+01   0.302E+01 -.452E+01 -.363E+01   0.180E+00 0.319E+00 -.111E+00   -.431E-04 -.384E-04 0.150E-03
   -.398E+02 0.396E+02 -.430E+02   0.424E+02 -.424E+02 0.466E+02   -.267E+01 0.277E+01 -.368E+01   0.925E-05 -.151E-03 0.358E-03
   -.437E+02 -.420E+02 0.337E+02   0.472E+02 0.453E+02 -.364E+02   -.344E+01 -.321E+01 0.273E+01   0.147E-03 0.100E-03 -.802E-04
   0.191E+02 0.321E+02 0.618E+02   -.215E+02 -.347E+02 -.660E+02   0.244E+01 0.264E+01 0.425E+01   -.139E-03 -.251E-03 -.108E-03
   0.505E+02 -.373E+02 -.382E+02   -.540E+02 0.403E+02 0.407E+02   0.342E+01 -.297E+01 -.249E+01   -.153E-03 0.161E-03 0.203E-03
   0.270E+02 -.631E+02 -.270E+02   -.292E+02 0.672E+02 0.292E+02   0.221E+01 -.410E+01 -.221E+01   -.211E-03 0.260E-03 0.211E-03
   0.538E+02 0.260E+02 0.417E+02   -.577E+02 -.283E+02 -.450E+02   0.392E+01 0.231E+01 0.329E+01   0.309E-04 -.233E-03 -.213E-03
   -.388E+02 -.439E+02 0.388E+02   0.415E+02 0.471E+02 -.415E+02   -.273E+01 -.314E+01 0.273E+01   0.251E-04 0.254E-03 -.251E-04
   -.417E+02 0.260E+02 -.538E+02   0.450E+02 -.283E+02 0.577E+02   -.329E+01 0.231E+01 -.392E+01   0.213E-03 -.233E-03 -.309E-04
   -.337E+02 -.420E+02 0.437E+02   0.364E+02 0.453E+02 -.472E+02   -.273E+01 -.321E+01 0.344E+01   0.802E-04 0.100E-03 -.147E-03
   -.618E+02 0.321E+02 -.191E+02   0.660E+02 -.347E+02 0.215E+02   -.425E+01 0.264E+01 -.244E+01   0.108E-03 -.251E-03 0.139E-03
   0.382E+02 -.373E+02 -.505E+02   -.407E+02 0.403E+02 0.540E+02   0.249E+01 -.297E+01 -.342E+01   -.203E-03 0.161E-03 0.153E-03
   0.430E+02 0.396E+02 0.398E+02   -.466E+02 -.424E+02 -.424E+02   0.368E+01 0.277E+01 0.267E+01   -.358E-03 -.151E-03 -.925E-05
   -.411E+02 -.219E+02 0.411E+02   0.443E+02 0.246E+02 -.443E+02   -.315E+01 -.280E+01 0.315E+01   -.768E-04 -.686E-04 0.768E-04
   -.275E+02 0.584E+02 -.380E+02   0.304E+02 -.618E+02 0.411E+02   -.281E+01 0.339E+01 -.310E+01   0.403E-03 -.240E-03 -.139E-04
   0.330E+02 -.409E+02 -.330E+02   -.359E+02 0.451E+02 0.359E+02   0.297E+01 -.414E+01 -.297E+01   -.616E-04 0.267E-03 0.616E-04
   0.380E+02 0.584E+02 0.275E+02   -.411E+02 -.618E+02 -.304E+02   0.310E+01 0.339E+01 0.281E+01   0.139E-04 -.240E-03 -.403E-03
   -.149E+02 -.418E+00 -.883E+01   0.153E+02 0.441E+00 0.897E+01   -.352E+00 -.233E-01 -.133E+00   0.193E-03 0.379E-04 0.191E-04
   0.893E+01 0.726E+01 -.893E+01   -.915E+01 -.764E+01 0.915E+01   0.223E+00 0.375E+00 -.223E+00   -.297E-03 0.184E-03 0.297E-03
   0.883E+01 -.418E+00 0.149E+02   -.897E+01 0.441E+00 -.153E+02   0.133E+00 -.233E-01 0.352E+00   -.191E-04 0.379E-04 -.193E-03
   -.168E+02 0.861E+01 0.168E+02   0.172E+02 -.910E+01 -.172E+02   -.358E+00 0.496E+00 0.358E+00   -.180E-03 -.248E-03 0.180E-03
   0.166E+02 0.472E+02 -.166E+02   -.168E+02 -.479E+02 0.168E+02   0.203E+00 0.770E+00 -.203E+00   0.403E-03 0.540E-03 -.403E-03
   0.150E+01 0.333E+01 -.331E+01   -.159E+01 -.338E+01 0.338E+01   0.101E+00 0.496E-01 -.654E-01   -.381E-04 0.533E-04 0.158E-03
   0.210E+02 -.426E+02 -.210E+02   -.213E+02 0.431E+02 0.213E+02   0.300E+00 -.483E+00 -.300E+00   0.429E-03 -.419E-03 -.429E-03
   0.331E+01 0.333E+01 -.150E+01   -.338E+01 -.338E+01 0.159E+01   0.654E-01 0.496E-01 -.101E+00   -.158E-03 0.533E-04 0.381E-04
   0.123E+01 -.672E+00 -.123E+01   0.131E-12 -.600E-13 -.155E-13   -.122E+01 0.674E+00 0.122E+01   0.347E-04 -.163E-03 -.347E-04

 POSITION                                       TOTAL-FORCE (eV/Angst)
      9.62566      1.78289      1.90543        -0.000051     -0.000194      0.000081
      9.24610      8.07038      7.92416        -0.000176      0.000059      0.000161
      0.26005      1.92366      7.56180        -0.000036      0.000006     -0.000052
      0.19409      6.57085      2.96326         0.000029     -0.000237      0.000077
      2.12813      1.92366      9.42989         0.000052      0.000006      0.000036
      1.76577      8.07038      0.44383        -0.000161      0.000059      0.000176
      7.78451      1.78289      0.06427        -0.000081     -0.000194      0.000051
      6.72667      6.57085      9.49584        -0.000077     -0.000237     -0.000029
      2.92642      9.46465      3.20156        -0.000036     -0.000012      0.000225
      3.14659      0.26763      6.54334         0.000084      0.000050     -0.000084
      6.48837      9.46465      6.76351        -0.000225     -0.000012      0.000036
      6.63456      0.29452      3.05538        -0.000012      0.000093      0.000012
      1.94995      6.69998      4.75609         0.000114      0.000118      0.000090
      1.87739      3.14104      5.01130         0.000193      0.000080      0.000034
      6.86092      7.53464      5.03475         0.000230     -0.000092     -0.000061
      8.03747      2.91739      4.47891         0.000350      0.000033     -0.000115
      2.33597      4.65229      7.35396        -0.000036     -0.000043      0.000036
      3.11135      5.22147      1.66886        -0.000063      0.000070      0.000025
      7.47756      4.55039      2.21237         0.000100      0.000014     -0.000100
      8.02108      5.22147      6.57859        -0.000025      0.000070      0.000063
      4.67864      3.14104      7.81255        -0.000034      0.000080     -0.000193
      4.65519      7.53464      2.82901         0.000061     -0.000092     -0.000230
      5.21102      2.91739      1.65247         0.000115      0.000033     -0.000350
      4.93385      6.69998      7.73999        -0.000090      0.000118     -0.000114
      4.94705      4.69659      4.74288         0.000149      0.000219     -0.000149
      4.82135      9.64175      0.03058         0.000034      0.000092     -0.000038
      0.06566      4.90206      9.62428         0.000048     -0.000016     -0.000048
      9.65936      9.64175      4.86859         0.000038      0.000092     -0.000034
      1.15825      8.52354      6.10711        -0.000014     -0.000047      0.000039
      1.18350      1.21819      3.78765        -0.000144     -0.000095      0.000113
      8.54131      8.49202      3.60017         0.000126      0.000095      0.000117
      8.37985      1.09772      5.99637        -0.000032     -0.000000      0.000002
      8.60750      6.17115      1.08243        -0.000242      0.000053      0.000242
      8.55848      3.73399      8.43713         0.000130      0.000073      0.000220
      1.16945      6.23232      8.52049         0.000011     -0.000275     -0.000011
      1.25280      3.73399      1.13145        -0.000220      0.000073     -0.000130
      5.90229      1.21819      8.50643        -0.000113     -0.000095      0.000144
      6.08977      8.49202      1.14862        -0.000117      0.000095     -0.000126
      3.69357      1.09772      1.31008        -0.000002     -0.000000      0.000032
      3.58283      8.52354      8.53168        -0.000039     -0.000047      0.000014
      6.13696      5.88647      3.55297        -0.000178     -0.000023      0.000178
      6.17719      3.59678      5.94008         0.000130     -0.000098      0.000025
      3.75362      5.88918      5.93631         0.000120     -0.000261     -0.000120
      3.74985      3.59678      3.51274        -0.000025     -0.000098     -0.000130
      7.14532      7.27799      7.29877        -0.000117     -0.000026     -0.000117
      7.39555      2.33114      2.29439         0.000105      0.000085     -0.000105
      2.39116      7.27799      2.54461         0.000117     -0.000026      0.000117
      2.50006      2.42370      7.18987        -0.000139      0.000147      0.000139
      0.14661      0.35695      9.54332         0.000104      0.000396     -0.000104
      0.07077      4.86657      4.80119        -0.000125      0.000051     -0.000062
      4.95638      9.31368      4.73355         0.000113     -0.000195     -0.000113
      4.88874      4.86657      9.61916         0.000062      0.000051      0.000125
    total drift:                                0.007161      0.001999     -0.007148

  FREE ENERGIE OF THE ION-ELECTRON SYSTEM (eV)
  free  energy   TOTEN  =      -271.99004327 eV

  energy  without entropy=     -271.99004327  energy(sigma->0) =     -271.99004327

 d Force = 0.7236893E-06[ 0.203E-06, 0.124E-05]  d Energy = 0.1547542E-05-0.824E-06
 d Force =-0.1845467E-01[-0.185E-01,-0.185E-01]  d Ewald  =-0.1845467E-01-0.509E-10

 stress matrix after NEB project (eV)
      0.51821     -1.31855      2.69222
     -1.31855     -1.05211      1.31855
      2.69222      1.31855      0.51821
  FORCES: max atom, RMS     0.000423    0.000213
  FORCE total and by dimension    0.001537    0.000396
  Stress total and by dimension    4.805668    2.692219
 Conjugate gradient step on ions:
 trial-energy change:   -0.000002  1 .order   -0.000001   -0.000001   -0.000000
  (g-gl).g = 0.635E-06      g.g   = 0.719E-06  gl.gl    = 0.909E-06
 g(Force)  = 0.719E-06   g(Stress)= 0.000E+00 ortho     = 0.837E-07
 gamma     =   0.69853
 trial     =   1.60161
 opt step  =   1.91347  (harmonic =   1.91347) maximal distance =0.00007288
 next E    =  -271.990042   (d E  =  -0.00000)

 reached required accuracy - stopping structural energy minimisation