 vasp.6.4.1 05Apr23 (build Jun 07 2023 15:38:11) complex

 executed on             LinuxIFC date 2023.10.16  22:24:36

 INCAR:
   GGA = PE
   PREC = Accu
   EDIFF = 1.e-6
   EDIFFG = -1.e-3
   ENCUT = 520.
   NELM = 100
   NELMDL = -10
   LASPH = .TRUE.
   LREAL = Auto
   LMAXMIX = 4
   ISPIN = 2
   LDIAG = .TRUE.
   LPLANE = .TRUE.
   IVDW = 12
   SIGMA = 0.03
   ISMEAR = 0
   NSW = 1000    number of steps for IOM
   IBRION = 2    ionic relax: 0-MD 1-quasi-New 2-CG
   ISIF = 2    ionic relaxation + stress tensor calcn.
   LCHARG = .FALSE.
   LWAVE = .FALSE.
   ALGO = F
   KPAR = 1
   NPAR = 4
   POTIM = 0.2

 POTCAR:    PAW_PBE Li_sv_GW 25Mar2010
 POTCAR:    PAW_PBE P_GW 19Mar2012
 POTCAR:    PAW_PBE S_GW 19Mar2012
 POTCAR:    PAW_PBE Cl_GW 19Mar2012
|           W    W    AA    RRRRR   N    N  II  N    N   GGGG   !!!           |
|           W    W   A  A   R    R  NN   N  II  NN   N  G    G  !!!           |
|           W    W  A    A  R    R  N N  N  II  N N  N  G       !!!           |
|           W WW W  AAAAAA  RRRRR   N  N N  II  N  N N  G  GGG   !            |
|           WW  WW  A    A  R   R   N   NN  II  N   NN  G    G                |
|           W    W  A    A  R    R  N    N  II  N    N   GGGG   !!!           |
|     You use a magnetic or noncollinear calculation, but did not specify     |
|     the initial magnetic moment with the MAGMOM tag. Note that a            |
|     default of 1 will be used for all atoms. This ferromagnetic setup       |
|     may break the symmetry of the crystal, in particular it may rule        |
|     out finding an antiferromagnetic solution. Thence, we recommend         |
|     setting the initial magnetic moment manually or verifying carefully     |
|     that this magnetic setup is desired.                                    |

   TITEL  = PAW_PBE Li_sv_GW 25Mar2010
   POMASS =    7.010; ZVAL   =    3.000    mass and valenz
   ENMAX  =  433.699; ENMIN  =  325.274 eV

   TITEL  = PAW_PBE P_GW 19Mar2012
   POMASS =   30.974; ZVAL   =    5.000    mass and valenz
   ENMAX  =  255.040; ENMIN  =  191.280 eV

[...]

   TITEL  = PAW_PBE Cl_GW 19Mar2012
   POMASS =   35.453; ZVAL   =    7.000    mass and valenz
   ENMAX  =  262.472; ENMIN  =  196.854 eV

 Optimization of the real space projectors (new method)

 maximal supplied QI-value         = 25.13
 optimisation between [QCUT,QGAM] = [ 11.56, 23.12] = [ 37.43,149.72] Ry
 Optimized for a Real-space Cutoff    1.28 Angstroem

   l    n(q)    QCUT    max X(q) W(low)/X(q) W(high)/X(q)  e(spline)
   0      9    11.561    87.733    0.11E-03    0.32E-04    0.56E-06
   0      9    11.561    82.800    0.11E-03    0.35E-04    0.56E-06
   0      9    11.561     2.509    0.22E-03    0.42E-04    0.79E-06
   1      8    11.561    12.580    0.94E-04    0.26E-03    0.21E-06
   1      8    11.561     1.319    0.33E-04    0.15E-03    0.19E-06
   2      8    11.561     1.993    0.36E-04    0.89E-04    0.26E-06
 Optimization of the real space projectors (new method)

[...]

   l    n(q)    QCUT    max X(q) W(low)/X(q) W(high)/X(q)  e(spline)
   0     10    11.508     7.541    0.34E-04    0.13E-04    0.69E-07
   0     10    11.508     1.809    0.49E-04    0.27E-04    0.14E-06
   1     10    11.508     4.107    0.27E-05    0.41E-05    0.14E-06
   1     10    11.508     2.196    0.26E-05    0.25E-05    0.22E-06
   2      9    11.508     4.265    0.18E-03    0.11E-03    0.81E-06
   2      9    11.508     1.925    0.97E-04    0.76E-04    0.47E-06
 Optimization of the real space projectors (new method)

 maximal supplied QI-value         = 19.84
 optimisation between [QCUT,QGAM] = [ 11.51, 23.22] = [ 37.09,150.92] Ry
 Optimized for a Real-space Cutoff    1.21 Angstroem

   l    n(q)    QCUT    max X(q) W(low)/X(q) W(high)/X(q)  e(spline)
   0      8    11.508     6.761    0.57E-04    0.57E-04    0.35E-07
   0      8    11.508     1.642    0.14E-03    0.14E-03    0.91E-07
   1      8    11.508     3.519    0.20E-04    0.72E-04    0.47E-07
   1      8    11.508     2.150    0.27E-04    0.11E-03    0.89E-07
   2      7    11.508     2.976    0.19E-03    0.33E-03    0.16E-06
   2      7    11.508     1.494    0.14E-03    0.29E-03    0.14E-06
  PAW_PBE Li_sv_GW 25Mar2010            :
  PAW_PBE P_GW 19Mar2012                :
  PAW_PBE S_GW 19Mar2012                :
  PAW_PBE Cl_GW 19Mar2012               :

 POSCAR: Li24 P4 S20 Cl4
  positions in direct lattice
  velocities in cartesian coordinates
 exchange correlation table for  LEXCH =        8
   RHO(1)=    0.500       N(1)  =     2000
   RHO(2)=  100.500       N(2)  =     4000

 VTST: version 4.1, (05/19/21)

 CHAIN: initializing optimizer

 OPT: Using VASP Conjugate-Gradient optimizer
 CHAIN: Read ICHAIN            0

 POSCAR: Li24 P4 S20 Cl4
  positions in direct lattice
  velocities in cartesian coordinates

 ion  position               nearest neighbor table
   1  0.980  0.259  0.241-
   2  0.970  0.728  0.772-  45 2.22
   3  0.039  0.179  0.828-
   4  0.039  0.672  0.321-
   5  0.333  0.318  0.954-
   6  0.178  0.806  0.020-
   7  0.699  0.280  0.027-
   8  0.684  0.697  0.993-
   9  0.192  0.991  0.201-
  10  0.278  0.020  0.708-
  11  0.801  0.962  0.829-
  12  0.824  0.017  0.194-
  13  0.278  0.792  0.480-
  14  0.192  0.299  0.509-
  15  0.801  0.671  0.538-
  16  0.824  0.306  0.483-
  17  0.178  0.480  0.694-
  18  0.333  0.546  0.182-
  19  0.699  0.473  0.220-
  20  0.684  0.507  0.803-
  21  0.477  0.198  0.670-
  22  0.477  0.830  0.302-
  23  0.528  0.175  0.325-
  24  0.530  0.815  0.685-
  25  0.495  0.503  0.498-  43 2.04  44 2.05  41 2.05  42 2.06
  26  0.495  0.003  0.997-  40 2.04  39 2.05  37 2.05  38 2.06
  27  0.006  0.493  0.007-  33 2.05  34 2.05  36 2.05  35 2.06
  28  0.985  0.990  0.511-  32 2.04  31 2.04  29 2.06  30 2.07
  29  0.107  0.867  0.633-  28 2.06
  30  0.108  0.113  0.387-  28 2.07
  31  0.871  0.863  0.387-  28 2.04
  32  0.871  0.113  0.638-  28 2.04
  33  0.885  0.617  0.129-  27 2.05
  34  0.885  0.371  0.883-  27 2.05
  35  0.137  0.612  0.888-  27 2.06
  36  0.143  0.379  0.121-  27 2.05
  37  0.613  0.119  0.865-  26 2.05
  38  0.626  0.891  0.122-  26 2.06
  39  0.380  0.130  0.120-  26 2.05
  40  0.376  0.872  0.882-  26 2.04
  41  0.613  0.635  0.381-  25 2.05
  42  0.626  0.378  0.609-  25 2.06
  43  0.376  0.619  0.629-  25 2.04
  44  0.380  0.381  0.370-  25 2.05
  45  0.741  0.737  0.763-   2 2.22
  46  0.750  0.242  0.258-
  47  0.251  0.763  0.247-
  48  0.251  0.253  0.737-
  49  0.002  0.996  0.007-
  50  0.002  0.493  0.505-
  51  0.461  0.989  0.512-
  52  0.537  0.485  0.015-

  LATTYP: Found a simple cubic cell.
 ALAT       =     9.6895376890

  Lattice vectors:

 A1 = (   9.6895376890,   0.0000000000,   0.0000000000)
 A2 = (   0.0000000000,   9.6895376890,   0.0000000000)
 A3 = (   0.0000000000,   0.0000000000,   9.6895376890)

Analysis of symmetry for initial positions (statically):
 Subroutine PRICEL returns:
 Original cell was already a primitive cell.

 Routine SETGRP: Setting up the symmetry group for a
 simple cubic supercell.

 Subroutine GETGRP returns: Found  2 space group operations
 (whereof  1 operations were pure point group operations)
 out of a pool of 48 trial point group operations.

The static configuration has the point symmetry C_1 .
 The point group associated with its full space group is C_1h.

Analysis of symmetry for dynamics (positions and initial velocities):
 Subroutine PRICEL returns:
 Original cell was already a primitive cell.

[...]

The dynamic configuration has the point symmetry C_1 .
 The point group associated with its full space group is C_1h.

Analysis of structural, dynamic, and magnetic symmetry:
 Subroutine PRICEL returns:
 Original cell was already a primitive cell.

 Routine SETGRP: Setting up the symmetry group for a
 simple cubic supercell.

 Subroutine GETGRP returns: Found  2 space group operations
 (whereof  1 operations were pure point group operations)
 out of a pool of 48 trial point group operations.

The overall configuration has the point symmetry C_1 .
 The point group associated with its full space group is C_1h.

 Subroutine INISYM returns: Found  2 space group operations
 (whereof  1 operations are pure point group operations),
 and found     1 'primitive' translations

                                     Primitive cell

  volume of cell :     909.7230

  direct lattice vectors                    reciprocal lattice vectors
     9.689537689  0.000000000  0.000000000     0.103204098  0.000000000  0.000000000
     0.000000000  9.689537689  0.000000000     0.000000000  0.103204098  0.000000000
     0.000000000  0.000000000  9.689537689     0.000000000  0.000000000  0.103204098

  length of vectors
     9.689537689  9.689537689  9.689537689     0.103204098  0.103204098  0.103204098

  position of ions in fractional coordinates (direct lattice)
     0.980162313  0.259006977  0.241127429
     0.969554199  0.728385586  0.771748820
     0.038849106  0.178990045  0.827853647
     0.038849106  0.672280759  0.321144361
     0.332880979  0.317861473  0.954283328
     0.178015811  0.805870259  0.020118786
     0.698524127  0.280458744  0.026879363
     0.683991673  0.696714508  0.993456696
     0.191551830  0.990901272  0.201321580
     0.277544352  0.019636521  0.708155215
     0.801042703  0.962313457  0.829402776
     0.824138811  0.017247856  0.193718548
     0.277544352  0.791979191  0.480497885
     0.191551830  0.298812827  0.509233135
     0.801042703  0.670731630  0.537820949
     0.824138811  0.306415858  0.482886550
     0.178015811  0.480015620  0.694264147
     0.332880979  0.545851078  0.182272933
     0.698524127  0.473255043  0.219675662
     0.683991673  0.506677711  0.803419898
     0.476774634  0.198007654  0.669722751
     0.476774634  0.830411655  0.302126753
     0.527662403  0.175326395  0.324808011
     0.530259719  0.815291328  0.684843078
     0.495028915  0.503162889  0.497633777
     0.495028915  0.002500630  0.996971518
     0.005871892  0.493353051  0.006781356
     0.984692628  0.989569363  0.510565043
     0.107441182  0.866742107  0.633392299
     0.107812528  0.112704727  0.387429679
     0.871192371  0.862628748  0.386995800
     0.871192371  0.113138606  0.637505658
     0.885340003  0.616846564  0.129311336
     0.885340003  0.370823070  0.883287842
     0.136839903  0.611796269  0.888338137
     0.143163357  0.379440324  0.120694082
     0.613267238  0.118865084  0.864918339
     0.625659301  0.890933741  0.122228794
     0.379676949  0.130366176  0.119606939
     0.376331386  0.871615293  0.881612724
     0.613267238  0.635216068  0.381269322
     0.625659301  0.377905612  0.609200665
     0.376331386  0.618521682  0.628519113
     0.379676949  0.380527467  0.369768230
     0.740520961  0.736847523  0.763286884
     0.750160174  0.242086007  0.258048400
     0.251099329  0.762649508  0.246837674
     0.251099329  0.253296732  0.737484898
     0.002218713  0.995571404  0.007334196
     0.002218713  0.492800210  0.504563002
     0.461179945  0.988517969  0.511616437
     0.536853003  0.484959681  0.015174725

  ion indices of the primitive-cell ions
   primitive index   ion index
                 1           1
[...]
      5     -42.5658      1.00000
      6     -42.4596      1.00000
      7     -42.4497      1.00000
      8     -42.4494      1.00000
      9     -42.4491      1.00000
     10     -42.4488      1.00000
     11     -42.4486      1.00000
     12     -42.4481      1.00000
     13     -42.4480      1.00000
     14     -42.4470      1.00000
     15     -42.4470      1.00000
     16     -42.4420      1.00000
     17     -42.4111      1.00000
     18     -42.4109      1.00000
     19     -42.4037      1.00000
     20     -42.3885      1.00000
     21     -42.3791      1.00000
     22     -42.3656      1.00000
     23     -42.3626      1.00000
     24     -42.3219      1.00000
     25     -13.1120      1.00000
     26     -13.0767      1.00000
     27     -13.0617      1.00000
     28     -13.0614      1.00000
     29     -12.6934      1.00000
     30     -12.6032      1.00000
     31     -12.4636      1.00000
     32     -12.4608      1.00000
     33     -10.3711      1.00000
     34     -10.3083      1.00000
     35     -10.3064      1.00000
     36     -10.2125      1.00000
     37     -10.1556      1.00000
     38     -10.0810      1.00000
     39     -10.0749      1.00000
     40     -10.0385      1.00000
     41     -10.0240      1.00000
     42     -10.0135      1.00000
     43      -9.9980      1.00000
     44      -9.9809      1.00000
     45      -8.4932      1.00000
     46      -8.4245      1.00000
     47      -8.3689      1.00000
     48      -8.3660      1.00000
     49      -6.2082      1.00000
     50      -5.7937      1.00000
     51      -5.7231      1.00000
     52      -5.7159      1.00000
     53      -3.3149      1.00000
     54      -3.2616      1.00000
     55      -3.2541      1.00000
     56      -2.9211      1.00000
     57      -2.7747      1.00000
     58      -2.7304      1.00000
     59      -2.6100      1.00000
     60      -2.5595      1.00000
[...]
    162       9.0113      0.00000
    163       9.0383      0.00000
    164       9.0991      0.00000
    165       9.2027      0.00000
    166       9.2141      0.00000
    167       9.2494      0.00000
    168       9.3366      0.00000
    169       9.4653      0.00000
    170       9.4784      0.00000
    171       9.5294      0.00000
    172       9.5817      0.00000
    173       9.5892      0.00000
    174       9.6523      0.00000
    175       9.7033      0.00000
    176       9.7935      0.00000

[...]

 soft charge-density along one line, spin component           2
         0         1         2         3         4         5         6         7         8         9
 total charge-density along one line

------------------------ aborting loop because EDIFF is reached ----------------------------------------

         DFTD3 V3.0 Rev 1
 Edisp (eV)  -13.44529

 E6    (eV) :    -8.2850
 E8    (eV) :    -5.1603
 % E8        : 38.38

  FORCE on cell =-STRESS in cart. coord.  units (eV):
  Direction    XX          YY          ZZ          XY          YZ          ZX
  Alpha Z   298.39578   298.39578   298.39578
  Ewald   -2956.98932 -2909.76022 -2909.76022    16.73287    13.25797   -16.73287
  Hartree   724.70273   753.39611   753.39611     6.27358    -0.77810    -6.27358
  E(xc)    -947.76043  -947.73902  -947.73903     0.02160     0.00106    -0.02160
  Local   -1476.39549 -1547.51844 -1547.51844   -22.05029    -6.41825    22.05029
  n-local  1481.92243  1481.05627  1481.00728    -0.17746     0.01268    -0.87590
  augment  -356.79967  -356.66491  -356.66496    -0.07156     0.09012     0.07429
  Kinetic  3246.14056  3243.66620  3243.59683    -0.69567    -3.50299    -0.83860
  Fock        0.00000     0.00000     0.00000     0.00000     0.00000     0.00000
  vdW       -14.26712   -14.25159   -14.25159    -0.00829     0.02553     0.00829
  Total      -1.05052     0.52096     0.52096     1.31722     2.68793    -1.31722
  in kB      -1.85015     0.91751     0.91751     2.31985     4.73391    -2.31985

 VOLUME and BASIS-vectors are now :
  energy-cutoff  :      520.00
  volume of cell :      909.72
      direct lattice vectors                 reciprocal lattice vectors
     9.689537689  0.000000000  0.000000000     0.103204098  0.000000000  0.000000000
     0.000000000  9.689537689  0.000000000     0.000000000  0.103204098  0.000000000
     0.000000000  0.000000000  9.689537689     0.000000000  0.000000000  0.103204098

  length of vectors
     9.689537689  9.689537689  9.689537689     0.103204098  0.103204098  0.103204098

 FORCES acting on ions
    electron-ion (+dipol)            ewald-force                    non-local-force                 convergence-correction
   -.411E+01 -.259E+01 0.259E+01   0.321E+01 0.246E+01 -.246E+01   0.887E+00 0.121E+00 -.121E+00   -.757E-04 0.129E-03 -.129E-03
   0.113E+01 0.204E+00 -.204E+00   -.191E+01 -.241E+00 0.241E+00   0.781E+00 0.337E-01 -.337E-01   -.903E-05 -.263E-04 0.263E-04
   -.137E+01 0.490E+01 -.844E+01   0.215E+01 -.377E+01 0.736E+01   -.775E+00 -.113E+01 0.108E+01   0.816E-04 -.221E-04 0.233E-04
   -.137E+01 0.844E+01 -.490E+01   0.215E+01 -.736E+01 0.377E+01   -.775E+00 -.108E+01 0.113E+01   0.816E-04 -.233E-04 0.221E-04
   -.686E+01 -.126E+02 0.413E+01   0.553E+01 0.112E+02 -.509E+01   0.133E+01 0.144E+01 0.953E+00   -.663E-04 -.210E-03 0.134E-04
   0.422E+01 -.316E+01 0.255E+01   -.312E+01 0.190E+01 -.201E+01   -.110E+01 0.126E+01 -.540E+00   -.365E-04 0.274E-04 0.357E-04
   -.784E+00 0.646E+01 0.282E+01   0.149E+01 -.720E+01 -.213E+01   -.708E+00 0.740E+00 -.683E+00   -.517E-04 0.850E-04 0.970E-04
   0.782E+01 -.257E+01 -.505E+01   -.706E+01 0.388E+01 0.419E+01   -.763E+00 -.132E+01 0.860E+00   0.616E-04 -.105E-03 0.682E-04
   0.452E+01 -.727E+01 0.643E+01   -.351E+01 0.654E+01 -.500E+01   -.101E+01 0.725E+00 -.144E+01   0.899E-04 0.251E-04 -.621E-05
   0.160E+01 -.202E+01 -.532E+01   -.254E+01 0.278E+01 0.606E+01   0.955E+00 -.758E+00 -.747E+00   0.418E-04 0.635E-04 -.798E-04
   -.699E+01 0.216E-02 -.516E+01   0.563E+01 -.594E+00 0.387E+01   0.136E+01 0.591E+00 0.129E+01   0.156E-04 -.579E-05 -.116E-03
   -.381E+01 0.336E+01 0.155E+01   0.249E+01 -.286E+01 -.827E+00   0.132E+01 -.502E+00 -.722E+00   0.466E-04 0.592E-04 0.404E-04
   0.160E+01 0.532E+01 0.202E+01   -.254E+01 -.606E+01 -.278E+01   0.955E+00 0.747E+00 0.758E+00   0.418E-04 0.798E-04 -.635E-04
   0.452E+01 -.643E+01 0.727E+01   -.351E+01 0.500E+01 -.654E+01   -.101E+01 0.144E+01 -.725E+00   0.899E-04 0.621E-05 -.251E-04
   -.699E+01 0.516E+01 -.216E-02   0.563E+01 -.387E+01 0.594E+00   0.136E+01 -.129E+01 -.591E+00   0.156E-04 0.116E-03 0.578E-05
   -.381E+01 -.155E+01 -.336E+01   0.249E+01 0.827E+00 0.286E+01   0.132E+01 0.722E+00 0.502E+00   0.466E-04 -.404E-04 -.592E-04
   0.422E+01 -.255E+01 0.316E+01   -.312E+01 0.201E+01 -.190E+01   -.110E+01 0.540E+00 -.126E+01   -.365E-04 -.357E-04 -.274E-04
   -.686E+01 -.413E+01 0.126E+02   0.553E+01 0.509E+01 -.112E+02   0.133E+01 -.953E+00 -.144E+01   -.663E-04 -.134E-04 0.210E-03
   -.784E+00 -.282E+01 -.646E+01   0.149E+01 0.213E+01 0.720E+01   -.708E+00 0.683E+00 -.740E+00   -.517E-04 -.970E-04 -.850E-04
   0.782E+01 0.505E+01 0.257E+01   -.706E+01 -.419E+01 -.388E+01   -.763E+00 -.860E+00 0.132E+01   0.616E-04 -.682E-04 0.105E-03
   -.964E+01 0.218E+01 0.750E+01   0.902E+01 -.798E+00 -.642E+01   0.609E+00 -.138E+01 -.109E+01   -.119E-03 0.941E-05 0.660E-04
   -.964E+01 -.750E+01 -.218E+01   0.902E+01 0.642E+01 0.798E+00   0.609E+00 0.109E+01 0.138E+01   -.119E-03 -.660E-04 -.941E-05
   -.266E+01 0.140E+02 -.140E+02   0.362E+01 -.126E+02 0.126E+02   -.954E+00 -.139E+01 0.139E+01   -.538E-04 0.179E-03 -.179E-03
   -.986E+01 -.488E+01 0.488E+01   0.108E+02 0.379E+01 -.379E+01   -.913E+00 0.110E+01 -.110E+01   0.444E-05 0.104E-03 -.104E-03
   0.419E+01 0.318E+01 -.375E+01   -.451E+01 -.300E+01 0.364E+01   0.318E+00 -.178E+00 0.111E+00   -.137E-03 -.398E-05 -.269E-03
   0.419E+01 0.375E+01 -.318E+01   -.451E+01 -.364E+01 0.300E+01   0.318E+00 -.111E+00 0.178E+00   -.137E-03 0.269E-03 0.399E-05
   0.251E+01 0.253E+01 -.253E+01   -.242E+01 -.272E+01 0.272E+01   -.813E-01 0.189E+00 -.189E+00   -.183E-03 -.129E-03 0.129E-03
   0.167E+02 -.274E+01 0.274E+01   -.177E+02 0.251E+01 -.251E+01   0.984E+00 0.228E+00 -.228E+00   0.147E-03 -.153E-03 0.153E-03
   -.218E+02 0.411E+02 -.411E+02   0.246E+02 -.443E+02 0.443E+02   -.280E+01 0.315E+01 -.315E+01   -.255E-03 0.349E-03 -.349E-03
   -.409E+02 -.330E+02 0.330E+02   0.450E+02 0.359E+02 -.359E+02   -.414E+01 -.296E+01 0.296E+01   0.778E-04 -.296E-03 0.296E-03
   0.584E+02 0.275E+02 0.380E+02   -.618E+02 -.303E+02 -.411E+02   0.339E+01 0.281E+01 0.310E+01   0.108E-03 -.860E-04 0.339E-03
   0.584E+02 -.380E+02 -.275E+02   -.618E+02 0.411E+02 0.303E+02   0.339E+01 -.310E+01 -.281E+01   0.108E-03 -.339E-03 0.860E-04
   0.260E+02 -.538E+02 -.417E+02   -.283E+02 0.577E+02 0.450E+02   0.231E+01 -.392E+01 -.329E+01   0.582E-04 -.354E-03 -.192E-03
   0.260E+02 0.417E+02 0.538E+02   -.283E+02 -.450E+02 -.577E+02   0.231E+01 0.329E+01 0.392E+01   0.582E-04 0.192E-03 0.354E-03
   -.632E+02 -.270E+02 0.270E+02   0.673E+02 0.292E+02 -.292E+02   -.410E+01 -.221E+01 0.221E+01   -.204E-03 -.292E-04 0.293E-04
   -.439E+02 0.388E+02 -.388E+02   0.471E+02 -.415E+02 0.415E+02   -.314E+01 0.273E+01 -.273E+01   -.111E-03 0.781E-04 -.781E-04
   -.373E+02 -.382E+02 0.505E+02   0.403E+02 0.407E+02 -.540E+02   -.297E+01 -.249E+01 0.342E+01   -.159E-03 -.813E-04 0.196E-03
   -.420E+02 0.337E+02 -.437E+02   0.452E+02 -.364E+02 0.472E+02   -.321E+01 0.273E+01 -.344E+01   -.142E-03 0.144E-03 -.902E-04
   0.396E+02 -.430E+02 -.398E+02   -.424E+02 0.467E+02 0.424E+02   0.277E+01 -.368E+01 -.267E+01   0.763E-04 0.881E-04 -.215E-03
   0.321E+02 0.618E+02 0.191E+02   -.347E+02 -.660E+02 -.215E+02   0.264E+01 0.425E+01 0.243E+01   0.564E-04 0.290E-03 0.778E-04
   -.373E+02 -.505E+02 0.382E+02   0.403E+02 0.540E+02 -.407E+02   -.297E+01 -.342E+01 0.249E+01   -.159E-03 -.196E-03 0.813E-04
   -.420E+02 0.437E+02 -.337E+02   0.452E+02 -.472E+02 0.364E+02   -.321E+01 0.344E+01 -.273E+01   -.142E-03 0.902E-04 -.144E-03
   0.321E+02 -.191E+02 -.618E+02   -.347E+02 0.215E+02 0.660E+02   0.264E+01 -.243E+01 -.425E+01   0.564E-04 -.778E-04 -.290E-03
   0.396E+02 0.398E+02 0.430E+02   -.424E+02 -.424E+02 -.467E+02   0.277E+01 0.267E+01 0.368E+01   0.763E-04 0.215E-03 -.881E-04
   0.728E+01 -.893E+01 0.893E+01   -.766E+01 0.915E+01 -.915E+01   0.375E+00 -.223E+00 0.223E+00   0.273E-03 0.208E-03 -.208E-03
   0.859E+01 0.168E+02 -.168E+02   -.908E+01 -.172E+02 0.172E+02   0.495E+00 0.358E+00 -.358E+00   -.147E-03 0.298E-03 -.298E-03
   -.428E+00 0.149E+02 0.884E+01   0.451E+00 -.153E+02 -.898E+01   -.236E-01 0.353E+00 0.133E+00   -.149E-04 -.784E-04 0.217E-03
   -.428E+00 -.884E+01 -.149E+02   0.451E+00 0.898E+01 0.153E+02   -.236E-01 -.133E+00 -.353E+00   -.149E-04 -.217E-03 0.784E-04
   0.334E+01 -.333E+01 0.149E+01   -.338E+01 0.340E+01 -.159E+01   0.492E-01 -.658E-01 0.101E+00   0.149E-03 0.150E-03 -.144E-03
   0.334E+01 -.149E+01 0.333E+01   -.338E+01 0.159E+01 -.340E+01   0.492E-01 -.101E+00 0.658E-01   0.149E-03 0.144E-03 -.150E-03
   -.426E+02 -.210E+02 0.210E+02   0.431E+02 0.213E+02 -.213E+02   -.482E+00 -.299E+00 0.299E+00   -.642E-03 -.496E-03 0.496E-03
   0.472E+02 -.166E+02 0.166E+02   -.480E+02 0.168E+02 -.168E+02   0.768E+00 -.203E+00 0.203E+00   0.770E-03 -.413E-03 0.413E-03
   -.660E+00 -.123E+01 0.123E+01   0.426E-13 -.462E-13 -.107E-13   0.657E+00 0.122E+01 -.122E+01   -.291E-03 -.263E-03 0.263E-03

 POSITION                                       TOTAL-FORCE (eV/Angst)
      9.49731      2.50967      2.33640        -0.000114      0.000076     -0.000076
      9.39454      7.05768      7.47792         0.000093     -0.000196      0.000196
      0.37643      1.73434      8.02152         0.000001      0.000054     -0.000027
      0.37643      6.51409      3.11173         0.000001      0.000027     -0.000054
      3.22550      3.07999      9.24653         0.000188      0.000409     -0.000276
      1.72482      7.80854      0.19495        -0.000319      0.000139     -0.000026
      6.76837      2.71752      0.26042        -0.000029      0.000010     -0.000168
      6.62749      6.75085      9.62613        -0.000407      0.000090     -0.000069
      1.85605      9.60140      1.95071         0.000009      0.000081     -0.000029
      2.68929      0.19025      6.86176         0.000032     -0.000077      0.000303
      7.76176      9.32435      8.03667         0.000137     -0.000117      0.000736
      7.98557      0.16713      1.87711         0.000213      0.000040      0.000352
      2.68929      7.67385      4.65582         0.000032     -0.000303      0.000077
      1.85605      2.89536      4.93421         0.000009      0.000029     -0.000081
      7.76176      6.49894      5.21126         0.000137     -0.000736      0.000117
      7.98557      2.96896      4.67894         0.000213     -0.000352     -0.000040
      1.72482      4.65112      6.72707        -0.000319      0.000026     -0.000139
      3.22550      5.28908      1.76608         0.000188      0.000276     -0.000409
      6.76837      4.58565      2.12855        -0.000029      0.000168     -0.000010
      6.62749      4.90948      7.78476        -0.000407      0.000069     -0.000090
      4.61972      1.91860      6.48923         0.000003      0.000020     -0.000391
      4.61972      8.04638      2.92747         0.000003      0.000391     -0.000020
      5.11281      1.69880      3.14728         0.000063     -0.000204      0.000204
      5.13800      7.89982      6.63579         0.000145      0.000149     -0.000149
      4.79658      4.87540      4.82179         0.000229      0.000350      0.000255
      4.79658      0.02428      9.66021         0.000229     -0.000255     -0.000350
      0.05690      4.78035      0.06572        -0.000117     -0.000107      0.000107
      9.54120      9.58845      4.94716         0.000305     -0.000198      0.000198
      1.04109      8.39829      6.13732        -0.000166      0.000385     -0.000385
      1.04465      1.09209      3.75398        -0.000638     -0.000482      0.000482
      8.44142      8.35842      3.74983         0.000244      0.000150      0.000313
      8.44142      1.09624      6.17719         0.000244     -0.000313     -0.000150
      8.57851      5.97702      1.25297         0.000304     -0.000303     -0.000531
      8.57851      3.59310      8.55859         0.000304      0.000531      0.000303
      1.32599      5.92800      8.60761        -0.000213     -0.000286      0.000286
      1.38723      3.67657      1.16950        -0.000581      0.000178     -0.000178
      5.94228      1.15177      8.38060        -0.000433     -0.000254      0.000269
      6.06240      8.63276      1.18437        -0.000419      0.000603     -0.000505
      3.67888      1.26324      1.15895        -0.000034      0.000116     -0.000073
      3.64647      8.44548      8.54243         0.000572      0.000559      0.000544
      5.94228      6.15501      3.69430        -0.000433     -0.000269      0.000254
      6.06240      3.66171      5.90285        -0.000419      0.000505     -0.000603
      3.64647      5.99318      6.09012         0.000572     -0.000544     -0.000559
      3.67888      3.68712      3.58283        -0.000034      0.000073     -0.000116
      7.17531      7.13971      7.39590         0.000151     -0.000106      0.000106
      7.26868      2.34571      2.50036         0.000077      0.000195     -0.000195
      2.43304      7.38973      2.39173        -0.000034      0.000210      0.000121
      2.43304      2.45434      7.14587        -0.000034     -0.000121     -0.000210
      0.02149      9.64665      0.07110         0.000103     -0.000036      0.000048
      0.02149      4.77498      4.88895         0.000103     -0.000048      0.000036
      4.46868      9.57833      4.95728        -0.000701     -0.000461      0.000461
      5.20177      4.69907      0.14701         0.000975     -0.000138      0.000138
    total drift:                               -0.003136     -0.005872      0.005894

  FREE ENERGIE OF THE ION-ELECTRON SYSTEM (eV)
  free  energy   TOTEN  =      -271.99003656 eV

  energy  without entropy=     -271.99003656  energy(sigma->0) =     -271.99003656

 d Force = 0.3847428E-06[ 0.498E-07, 0.720E-06]  d Energy = 0.8135465E-06-0.429E-06
 d Force = 0.3706124E-01[ 0.371E-01, 0.371E-01]  d Ewald  = 0.3706124E-01 0.255E-10

 stress matrix after NEB project (eV)
     -1.05052      1.31722     -1.31722
      1.31722      0.52096      2.68793
     -1.31722      2.68793      0.52096
  FORCES: max atom, RMS     0.000994    0.000512
  FORCE total and by dimension    0.003689    0.000975
  Stress total and by dimension    4.799652    2.687933

 reached required accuracy - stopping structural energy minimisation