 vasp.6.4.1 05Apr23 (build Jun 07 2023 15:38:11) complex

 executed on             LinuxIFC date 2023.10.04  18:48:53

 INCAR:
   GGA = PE
   PREC = Accu
   EDIFF = 1.e-5
   EDIFFG = -1.e-2
   ENCUT = 520.
   NELM = 100
   NELMDL = -10
   LASPH = .TRUE.
   LREAL = Auto
   LMAXMIX = 4
   ISPIN = 2
   LDIAG = .TRUE.
   LPLANE = .TRUE.
   IVDW = 12
   SIGMA = 0.03
   ISMEAR = 0
   NSW = 1000    number of steps for IOM
   IBRION = 1    ionic relax: 0-MD 1-quasi-New 2-CG
   ISIF = 2    ionic relaxation + stress tensor calcn.
   LCHARG = .FALSE.
   LWAVE = .FALSE.
   ALGO = V
   KPAR = 1
   NPAR = 4

 POTCAR:    PAW_PBE Li_sv_GW 25Mar2010
 POTCAR:    PAW_PBE P_GW 19Mar2012
 POTCAR:    PAW_PBE S_GW 19Mar2012
 POTCAR:    PAW_PBE Cl_GW 19Mar2012
|           W    W    AA    RRRRR   N    N  II  N    N   GGGG   !!!           |
|           W    W   A  A   R    R  NN   N  II  NN   N  G    G  !!!           |
|           W    W  A    A  R    R  N N  N  II  N N  N  G       !!!           |
|           W WW W  AAAAAA  RRRRR   N  N N  II  N  N N  G  GGG   !            |
|           WW  WW  A    A  R   R   N   NN  II  N   NN  G    G                |
|           W    W  A    A  R    R  N    N  II  N    N   GGGG   !!!           |
|     You use a magnetic or noncollinear calculation, but did not specify     |
|     the initial magnetic moment with the MAGMOM tag. Note that a            |
|     default of 1 will be used for all atoms. This ferromagnetic setup       |
|     may break the symmetry of the crystal, in particular it may rule        |
|     out finding an antiferromagnetic solution. Thence, we recommend         |
|     setting the initial magnetic moment manually or verifying carefully     |
|     that this magnetic setup is desired.                                    |

   TITEL  = PAW_PBE Li_sv_GW 25Mar2010
   POMASS =    7.010; ZVAL   =    3.000    mass and valenz
   ENMAX  =  433.699; ENMIN  =  325.274 eV

   TITEL  = PAW_PBE P_GW 19Mar2012
   POMASS =   30.974; ZVAL   =    5.000    mass and valenz
   ENMAX  =  255.040; ENMIN  =  191.280 eV

[...]

   TITEL  = PAW_PBE Cl_GW 19Mar2012
   POMASS =   35.453; ZVAL   =    7.000    mass and valenz
   ENMAX  =  262.472; ENMIN  =  196.854 eV

 Optimization of the real space projectors (new method)

 maximal supplied QI-value         = 25.13
 optimisation between [QCUT,QGAM] = [ 11.56, 23.12] = [ 37.43,149.72] Ry
 Optimized for a Real-space Cutoff    1.28 Angstroem

   l    n(q)    QCUT    max X(q) W(low)/X(q) W(high)/X(q)  e(spline)
   0      9    11.561    87.733    0.11E-03    0.32E-04    0.56E-06
   0      9    11.561    82.800    0.11E-03    0.35E-04    0.56E-06
   0      9    11.561     2.509    0.22E-03    0.42E-04    0.79E-06
   1      8    11.561    12.580    0.94E-04    0.26E-03    0.21E-06
   1      8    11.561     1.319    0.33E-04    0.15E-03    0.19E-06
   2      8    11.561     1.993    0.36E-04    0.89E-04    0.26E-06
 Optimization of the real space projectors (new method)

[...]

   l    n(q)    QCUT    max X(q) W(low)/X(q) W(high)/X(q)  e(spline)
   0     10    11.508     7.541    0.34E-04    0.13E-04    0.69E-07
   0     10    11.508     1.809    0.49E-04    0.27E-04    0.14E-06
   1     10    11.508     4.107    0.27E-05    0.41E-05    0.14E-06
   1     10    11.508     2.196    0.26E-05    0.25E-05    0.22E-06
   2      9    11.508     4.265    0.18E-03    0.11E-03    0.81E-06
   2      9    11.508     1.925    0.97E-04    0.76E-04    0.47E-06
 Optimization of the real space projectors (new method)

 maximal supplied QI-value         = 19.84
 optimisation between [QCUT,QGAM] = [ 11.51, 23.22] = [ 37.09,150.92] Ry
 Optimized for a Real-space Cutoff    1.21 Angstroem

   l    n(q)    QCUT    max X(q) W(low)/X(q) W(high)/X(q)  e(spline)
   0      8    11.508     6.761    0.57E-04    0.57E-04    0.35E-07
   0      8    11.508     1.642    0.14E-03    0.14E-03    0.91E-07
   1      8    11.508     3.519    0.20E-04    0.72E-04    0.47E-07
   1      8    11.508     2.150    0.27E-04    0.11E-03    0.89E-07
   2      7    11.508     2.976    0.19E-03    0.33E-03    0.16E-06
   2      7    11.508     1.494    0.14E-03    0.29E-03    0.14E-06
  PAW_PBE Li_sv_GW 25Mar2010            :
  PAW_PBE P_GW 19Mar2012                :
  PAW_PBE S_GW 19Mar2012                :
  PAW_PBE Cl_GW 19Mar2012               :

 POSCAR: Li24 P4 S20 Cl4
  positions in direct lattice
  velocities in cartesian coordinates
 exchange correlation table for  LEXCH =        8
   RHO(1)=    0.500       N(1)  =     2000
   RHO(2)=  100.500       N(2)  =     4000

 VTST: version 4.1, (05/19/21)

 CHAIN: initializing optimizer

 OPT: Using VASP QUASI-newton optimizer
 CHAIN: Read ICHAIN            0

 POSCAR: Li24 P4 S20 Cl4
  positions in direct lattice
  velocities in cartesian coordinates

 ion  position               nearest neighbor table
   1  0.977  0.250  0.250-
   2  0.977  0.750  0.750-
   3  0.023  0.250  0.750-
   4  0.023  0.750  0.250-
   5  0.250  0.250  0.977-
   6  0.250  0.750  0.023-
   7  0.750  0.250  0.023-
   8  0.750  0.750  0.977-
   9  0.250  0.977  0.250-
  10  0.250  0.023  0.750-
  11  0.750  0.977  0.750-
  12  0.750  0.023  0.250-
  13  0.250  0.750  0.477-
  14  0.250  0.250  0.523-
  15  0.750  0.750  0.523-
  16  0.750  0.250  0.477-
  17  0.250  0.477  0.750-
  18  0.250  0.523  0.250-
  19  0.750  0.477  0.250-
  20  0.750  0.523  0.750-
  21  0.477  0.250  0.750-
  22  0.477  0.750  0.250-
  23  0.523  0.250  0.250-
  24  0.523  0.750  0.750-
  25  0.500  0.500  0.500-  43 2.05  42 2.05  44 2.05  41 2.05
  26  0.500  0.000  0.000-  38 2.05  39 2.05  40 2.05  37 2.05
  27  0.000  0.500  0.000-  33 2.05  36 2.05  35 2.05  34 2.05
  28  1.000  1.000  0.500-  29 2.05  32 2.05  30 2.05  31 2.05
  29  0.118  0.882  0.618-  28 2.05
  30  0.118  0.118  0.382-  28 2.05
  31  0.882  0.882  0.382-  28 2.05
  32  0.882  0.118  0.618-  28 2.05
  33  0.882  0.618  0.118-  27 2.05
  34  0.882  0.382  0.882-  27 2.05
  35  0.119  0.618  0.882-  27 2.05
  36  0.118  0.382  0.118-  27 2.05
  37  0.618  0.118  0.882-  26 2.05
  38  0.618  0.882  0.118-  26 2.05
  39  0.382  0.118  0.118-  26 2.05
  40  0.381  0.882  0.882-  26 2.05
  41  0.618  0.618  0.382-  25 2.05
  42  0.618  0.382  0.618-  25 2.05
  43  0.382  0.618  0.618-  25 2.05
  44  0.382  0.382  0.382-  25 2.05
  45  0.750  0.750  0.750-
  46  0.750  0.250  0.250-
  47  0.250  0.750  0.250-
  48  0.250  0.250  0.750-
  49  1.000  1.000  0.000-
  50  0.000  0.500  0.500-
  51  0.500  0.000  0.500-
  52  0.500  0.500  0.000-

  LATTYP: Found a simple cubic cell.
 ALAT       =    10.0247498456

  Lattice vectors:

 A1 = (  10.0247498456,   0.0000000000,   0.0000000000)
 A2 = (   0.0000000000,  10.0247498456,   0.0000000000)
 A3 = (   0.0000000000,   0.0000000000,  10.0247498456)

Analysis of symmetry for initial positions (statically):
 Subroutine PRICEL returns:
 Original cell was already a primitive cell.

 Routine SETGRP: Setting up the symmetry group for a
 simple cubic supercell.

 Subroutine GETGRP returns: Found  2 space group operations
 (whereof  1 operations were pure point group operations)
 out of a pool of 48 trial point group operations.

The static configuration has the point symmetry C_1 .
 The point group associated with its full space group is C_2 .

Analysis of symmetry for dynamics (positions and initial velocities):
 Subroutine PRICEL returns:
 Original cell was already a primitive cell.

[...]

The dynamic configuration has the point symmetry C_1 .
 The point group associated with its full space group is C_2 .

Analysis of structural, dynamic, and magnetic symmetry:
 Subroutine PRICEL returns:
 Original cell was already a primitive cell.

 Routine SETGRP: Setting up the symmetry group for a
 simple cubic supercell.

 Subroutine GETGRP returns: Found  2 space group operations
 (whereof  1 operations were pure point group operations)
 out of a pool of 48 trial point group operations.

The overall configuration has the point symmetry C_1 .
 The point group associated with its full space group is C_2 .

 Subroutine INISYM returns: Found  2 space group operations
 (whereof  1 operations are pure point group operations),
 and found     1 'primitive' translations

                                     Primitive cell

  volume of cell :    1007.4433

  direct lattice vectors                    reciprocal lattice vectors
    10.024749846  0.000000000  0.000000000     0.099753113  0.000000000  0.000000000
     0.000000000 10.024749846  0.000000000     0.000000000  0.099753113  0.000000000
     0.000000000  0.000000000 10.024749846     0.000000000  0.000000000  0.099753113

  length of vectors
    10.024749846 10.024749846 10.024749846     0.099753113  0.099753113  0.099753113

  position of ions in fractional coordinates (direct lattice)
     0.976837003  0.249790567  0.250140898
     0.977013534  0.749539807  0.750398534
     0.023092764  0.250068028  0.749820545
     0.023092722  0.750003988  0.249972290
     0.250000000  0.250000000  0.976675401
     0.250000000  0.750000000  0.023481292
     0.750000000  0.250000000  0.023119260
     0.750000000  0.750000000  0.976769654
     0.250044779  0.976753049  0.249860169
     0.249886186  0.023327424  0.749574921
     0.750375551  0.976712317  0.750195357
     0.749997574  0.023251865  0.249874392
     0.250000000  0.750000000  0.476829735
     0.250000000  0.250000000  0.523166393
     0.750000000  0.750000000  0.523337745
     0.750000000  0.250000000  0.476620117
     0.250113814  0.476672576  0.749574921
     0.249955221  0.523246951  0.249860169
     0.750002426  0.476748135  0.249874392
     0.749624449  0.523287683  0.750195357
     0.476907236  0.249931972  0.749820545
     0.476907278  0.749996012  0.249972290
     0.523162997  0.250209433  0.250140898
     0.522986466  0.750460193  0.750398534
     0.500049613  0.500109272  0.500002150
     0.499900175  0.000162432  0.000055139
     0.000099825  0.499837568  0.000055139
     0.999950387  0.999890728  0.500002150
     0.117906167  0.881718793  0.618141063
     0.118209471  0.117887116  0.381963832
     0.881748461  0.881892397  0.381878202
     0.881815888  0.118069527  0.617956349
     0.881952847  0.618025921  0.117976946
     0.881884322  0.381974511  0.881819351
     0.118615656  0.617713859  0.882143866
     0.118036920  0.381645693  0.118207084
     0.618115678  0.118025489  0.881819351
     0.618047153  0.881974079  0.117976946
     0.381963080  0.118354307  0.118207084
     0.381384344  0.882286141  0.882143866
     0.618251539  0.618107603  0.381878202
     0.618184112  0.381930473  0.617956349
     0.382093833  0.618281207  0.618141063
     0.381790529  0.382112884  0.381963832
     0.750000000  0.750000000  0.750061410
     0.750000000  0.250000000  0.249886066
     0.250000000  0.750000000  0.250126400
     0.250000000  0.250000000  0.749911232
     0.999953170  0.999884411  0.000013013
     0.000186258  0.499883496  0.500013549
     0.499813742  0.000116504  0.500013549
     0.500046830  0.500115589  0.000013013

  ion indices of the primitive-cell ions
   primitive index   ion index
                 1           1
                 2           2
[...]
     17     -43.2942      1.00000
     18     -43.2940      1.00000
     19     -43.2938      1.00000
     20     -43.2936      1.00000
     21     -43.2936      1.00000
     22     -43.2930      1.00000
     23     -43.2925      1.00000
     24     -43.2921      1.00000
     25     -14.1229      1.00000
     26     -14.1080      1.00000
     27     -14.1079      1.00000
     28     -14.1079      1.00000
     29     -11.2660      1.00000
     30     -11.2654      1.00000
     31     -11.2649      1.00000
     32     -11.2036      1.00000
     33     -11.1383      1.00000
     34     -11.1382      1.00000
     35     -11.1376      1.00000
     36     -11.1128      1.00000
     37     -11.1121      1.00000
     38     -11.1119      1.00000
     39     -11.1111      1.00000
     40     -11.1102      1.00000
     41     -11.0820      1.00000
     42     -11.0758      1.00000
     43     -11.0756      1.00000
     44     -11.0748      1.00000
     45      -9.6554      1.00000
     46      -9.6549      1.00000
     47      -9.6545      1.00000
     48      -9.6513      1.00000
     49      -7.1137      1.00000
     50      -6.8230      1.00000
     51      -6.8228      1.00000
     52      -6.8224      1.00000
     53      -4.1698      1.00000
     54      -4.1693      1.00000
     55      -4.1690      1.00000
     56      -3.8872      1.00000
     57      -3.7260      1.00000
     58      -3.7258      1.00000
     59      -3.6256      1.00000
     60      -3.6254      1.00000
[...]
    162       8.3858      0.00000
    163       8.4243      0.00000
    164       8.4698      0.00000
    165       8.5351      0.00000
    166       8.5556      0.00000
    167       8.5822      0.00000
    168       8.7403      0.00000
    169       8.8384      0.00000
    170       8.9044      0.00000
    171       8.9374      0.00000
    172       9.0607      0.00000
    173       9.2812      0.00000
    174       9.3179      0.00000
    175       9.3918      0.00000
    176       9.8428      0.00000

 soft charge-density along one line, spin component           1
         0         1         2         3         4         5         6         7         8         9
 total charge-density along one line

 soft charge-density along one line, spin component           2
         0         1         2         3         4         5         6         7         8         9
 total charge-density along one line

------------------------ aborting loop because EDIFF is reached ----------------------------------------

         DFTD3 V3.0 Rev 1
 IVDW         = 12
 DF pbe
 parameters
 VDW_S6       =    1.0000
 VDW_S8       =    0.7875
 VDW_A1       =    0.4289
 VDW_A2       =    4.4407
 k1-k3        =   16.0000    1.3333   -4.0000
 VDW_RADIUS   =   50.2022 A
 VDW_CNRADIUS =   21.1671 A
 Edisp (eV)  -12.09145

 E6    (eV) :    -7.4458
 E8    (eV) :    -4.6457
 % E8        : 38.42

  FORCE on cell =-STRESS in cart. coord.  units (eV):
  Direction    XX          YY          ZZ          XY          YZ          ZX
  Alpha Z   269.45188   269.45188   269.45188
  Ewald   -2759.74427 -2758.75258 -2758.75956    -0.00904     0.00000    -0.00000
  Hartree   843.83440   844.41311   844.40832     0.05245    -0.00000    -0.00000
  E(xc)    -946.87355  -946.87399  -946.87397     0.00044    -0.00000    -0.00000
  Local   -1759.56762 -1761.26549 -1761.25181    -0.05436    -0.00000    -0.00000
  n-local  1481.03229  1481.10784  1481.10684    -0.01526    -0.58385    -0.00003
  augment  -356.00240  -356.02565  -356.02538     0.00019    -0.00000    -0.00000
  Kinetic  3240.29386  3240.55018  3240.54680     0.01940    -1.04340     0.00035
  Fock        0.00000     0.00000     0.00000     0.00000     0.00000     0.00000
  vdW       -12.84443   -12.84418   -12.84418    -0.00011     0.00000     0.00000
  Total      -0.41985    -0.23887    -0.24106    -0.00630     0.00000     0.00000
  in kB      -0.66771    -0.37988    -0.38337    -0.01001     0.00000     0.00000

 VOLUME and BASIS-vectors are now :
  energy-cutoff  :      520.00
  volume of cell :     1007.44
      direct lattice vectors                 reciprocal lattice vectors
    10.024749846  0.000000000  0.000000000     0.099753113  0.000000000  0.000000000
     0.000000000 10.024749846  0.000000000     0.000000000  0.099753113  0.000000000
     0.000000000  0.000000000 10.024749846     0.000000000  0.000000000  0.099753113

  length of vectors
    10.024749846 10.024749846 10.024749846     0.099753113  0.099753113  0.099753113

 FORCES acting on ions
    electron-ion (+dipol)            ewald-force                    non-local-force                 convergence-correction
   -.673E+01 0.178E-02 -.148E-01   0.603E+01 0.300E-02 0.972E-02   0.684E+00 -.436E-02 0.529E-02   -.343E-03 0.295E-04 -.475E-04
   -.672E+01 0.324E-02 0.568E-01   0.602E+01 0.284E-02 -.622E-01   0.682E+00 -.337E-02 0.216E-02   -.332E-03 -.726E-05 0.342E-04
   0.679E+01 -.274E-02 -.137E-01   -.609E+01 0.602E-02 0.138E-01   -.684E+00 -.131E-02 -.144E-02   0.404E-03 -.333E-04 0.427E-04
   0.679E+01 0.723E-02 -.197E-01   -.609E+01 -.660E-02 0.222E-01   -.684E+00 0.300E-03 -.151E-02   0.266E-03 -.398E-04 -.383E-04
   0.337E-11 0.209E-10 -.674E+01   -.378E-12 0.000E+00 0.604E+01   0.000E+00 0.000E+00 0.689E+00   -.179E-13 0.728E-13 -.309E-03
   -.400E-11 0.215E-10 0.686E+01   -.533E-14 0.178E-13 -.616E+01   0.000E+00 0.000E+00 -.697E+00   0.209E-13 -.650E-13 0.283E-03
   -.140E-11 0.209E-10 0.684E+01   0.393E-12 0.178E-14 -.614E+01   0.000E+00 0.000E+00 -.692E+00   0.242E-13 0.959E-13 0.370E-03
   0.452E-11 0.217E-10 -.686E+01   0.213E-13 0.000E+00 0.615E+01   0.000E+00 0.000E+00 0.702E+00   -.252E-13 -.946E-13 -.308E-03
   0.161E-01 -.679E+01 0.559E-01   -.165E-01 0.609E+01 -.468E-01   0.812E-03 0.693E+00 -.897E-02   0.328E-04 -.177E-03 -.310E-04
   -.782E-01 0.685E+01 0.474E-01   0.774E-01 -.615E+01 -.381E-01   0.449E-02 -.697E+00 -.930E-02   -.293E-04 0.437E-03 0.322E-04
   -.528E-01 -.681E+01 -.875E-01   0.483E-01 0.611E+01 0.833E-01   0.601E-02 0.697E+00 0.835E-02   0.731E-05 -.285E-03 0.684E-04
   -.138E-02 0.684E+01 -.216E-01   0.125E-02 -.614E+01 0.224E-01   0.492E-03 -.693E+00 -.127E-02   -.234E-04 0.429E-03 -.462E-04
   0.372E-11 0.213E-10 -.684E+01   0.361E-12 -.383E-12 0.614E+01   0.000E+00 0.000E+00 0.696E+00   -.393E-13 -.476E-13 -.298E-03
   -.375E-11 0.212E-10 0.684E+01   0.364E-12 -.438E-12 -.614E+01   0.000E+00 0.000E+00 -.696E+00   0.775E-14 0.539E-13 0.377E-03
   -.440E-11 0.215E-10 0.675E+01   0.369E-12 0.384E-12 -.606E+01   0.000E+00 0.000E+00 -.691E+00   0.364E-13 -.495E-13 0.317E-03
   0.372E-11 0.213E-10 -.683E+01   0.376E-12 -.435E-13 0.614E+01   0.000E+00 0.000E+00 0.694E+00   -.747E-15 0.481E-13 -.438E-03
   0.782E-01 -.685E+01 0.474E-01   -.774E-01 0.615E+01 -.381E-01   -.449E-02 0.697E+00 -.930E-02   0.293E-04 -.437E-03 0.322E-04
   -.161E-01 0.679E+01 0.559E-01   0.165E-01 -.609E+01 -.468E-01   -.812E-03 -.693E+00 -.897E-02   -.328E-04 0.177E-03 -.310E-04
   0.138E-02 -.684E+01 -.216E-01   -.125E-02 0.614E+01 0.224E-01   -.492E-03 0.693E+00 -.127E-02   0.234E-04 -.429E-03 -.462E-04
   0.528E-01 0.681E+01 -.875E-01   -.483E-01 -.611E+01 0.833E-01   -.601E-02 -.697E+00 0.835E-02   -.731E-05 0.285E-03 0.684E-04
   -.679E+01 0.274E-02 -.137E-01   0.609E+01 -.602E-02 0.138E-01   0.684E+00 0.131E-02 -.144E-02   -.404E-03 0.333E-04 0.427E-04
   -.679E+01 -.723E-02 -.197E-01   0.609E+01 0.660E-02 0.222E-01   0.684E+00 -.300E-03 -.151E-02   -.266E-03 0.398E-04 -.383E-04
   0.673E+01 -.178E-02 -.148E-01   -.603E+01 -.300E-02 0.972E-02   -.684E+00 0.436E-02 0.529E-02   0.343E-03 -.295E-04 -.475E-04
   0.672E+01 -.324E-02 0.568E-01   -.602E+01 -.284E-02 -.622E-01   -.682E+00 0.337E-02 0.216E-02   0.332E-03 0.726E-05 0.342E-04
   -.386E-01 -.823E-01 -.161E-01   0.405E-01 0.852E-01 0.154E-01   -.136E-02 -.324E-02 -.381E-02   -.609E-04 -.772E-04 0.826E-06
   -.554E-01 -.240E-01 0.428E-01   0.509E-01 0.273E-01 -.431E-01   0.575E-02 -.573E-02 -.632E-02   0.357E-04 0.812E-04 0.690E-04
   0.554E-01 0.240E-01 0.428E-01   -.509E-01 -.273E-01 -.431E-01   -.575E-02 0.573E-02 -.632E-02   -.357E-04 -.812E-04 0.690E-04
   0.386E-01 0.823E-01 -.161E-01   -.405E-01 -.852E-01 0.154E-01   0.136E-02 0.324E-02 -.381E-02   0.609E-04 0.772E-04 0.826E-06
   -.448E+02 0.453E+02 -.452E+02   0.481E+02 -.486E+02 0.485E+02   -.330E+01 0.330E+01 -.329E+01   -.807E-04 0.169E-03 -.702E-04
   -.451E+02 -.450E+02 0.450E+02   0.484E+02 0.483E+02 -.483E+02   -.331E+01 -.329E+01 0.330E+01   0.147E-04 0.427E-04 -.560E-05
   0.452E+02 0.451E+02 0.450E+02   -.485E+02 -.484E+02 -.483E+02   0.331E+01 0.329E+01 0.329E+01   0.303E-04 0.120E-03 0.349E-05
   0.452E+02 -.451E+02 -.451E+02   -.485E+02 0.484E+02 0.483E+02   0.330E+01 -.329E+01 -.328E+01   0.884E-04 -.441E-04 -.262E-04
   0.451E+02 -.452E+02 -.450E+02   -.484E+02 0.484E+02 0.483E+02   0.330E+01 -.329E+01 -.329E+01   0.696E-04 -.181E-03 -.119E-03
   0.451E+02 0.450E+02 0.452E+02   -.484E+02 -.483E+02 -.485E+02   0.330E+01 0.329E+01 0.330E+01   0.114E-04 0.674E-04 0.220E-03
   -.452E+02 -.450E+02 0.451E+02   0.485E+02 0.483E+02 -.483E+02   -.333E+01 -.328E+01 0.328E+01   -.982E-04 -.187E-03 0.128E-03
   -.449E+02 0.451E+02 -.451E+02   0.482E+02 -.484E+02 0.484E+02   -.329E+01 0.330E+01 -.329E+01   -.633E-04 -.265E-05 0.119E-05
   -.451E+02 -.450E+02 0.452E+02   0.484E+02 0.483E+02 -.485E+02   -.330E+01 -.329E+01 0.330E+01   -.114E-04 -.674E-04 0.220E-03
   -.451E+02 0.452E+02 -.450E+02   0.484E+02 -.484E+02 0.483E+02   -.330E+01 0.329E+01 -.329E+01   -.696E-04 0.181E-03 -.119E-03
   0.449E+02 -.451E+02 -.451E+02   -.482E+02 0.484E+02 0.484E+02   0.329E+01 -.330E+01 -.329E+01   0.633E-04 0.265E-05 0.119E-05
   0.452E+02 0.450E+02 0.451E+02   -.485E+02 -.483E+02 -.483E+02   0.333E+01 0.328E+01 0.328E+01   0.982E-04 0.187E-03 0.128E-03
   -.452E+02 -.451E+02 0.450E+02   0.485E+02 0.484E+02 -.483E+02   -.331E+01 -.329E+01 0.329E+01   -.303E-04 -.120E-03 0.349E-05
   -.452E+02 0.451E+02 -.451E+02   0.485E+02 -.484E+02 0.483E+02   -.330E+01 0.329E+01 -.328E+01   -.884E-04 0.441E-04 -.262E-04
   0.448E+02 -.453E+02 -.452E+02   -.481E+02 0.486E+02 0.485E+02   0.330E+01 -.330E+01 -.329E+01   0.807E-04 -.169E-03 -.702E-04
   0.451E+02 0.450E+02 0.450E+02   -.484E+02 -.483E+02 -.483E+02   0.331E+01 0.329E+01 0.330E+01   -.147E-04 -.427E-04 -.560E-05
   -.144E-12 0.357E-10 0.164E+00   0.480E-13 -.888E-14 -.170E+00   0.000E+00 0.000E+00 0.670E-02   -.546E-13 -.162E-12 0.539E-04
   0.341E-12 0.364E-10 0.406E-01   0.195E-13 0.711E-14 -.448E-01   0.000E+00 0.000E+00 0.508E-02   0.362E-13 0.134E-12 -.926E-04
   -.268E-12 0.363E-10 -.141E+00   -.178E-14 -.178E-14 0.148E+00   0.000E+00 0.000E+00 -.745E-02   -.107E-12 -.102E-12 -.443E-04
   0.561E-12 0.371E-10 -.161E+00   0.355E-14 -.178E-14 0.166E+00   0.000E+00 0.000E+00 -.372E-02   -.215E-13 0.138E-12 -.774E-04
   -.111E-01 -.653E-01 0.727E-01   0.170E-01 0.686E-01 -.743E-01   -.861E-02 -.535E-02 0.228E-02   -.635E-04 0.143E-03 -.533E-05
   0.243E+00 -.155E+00 -.154E-01   -.248E+00 0.158E+00 0.134E-01   0.828E-02 -.443E-02 0.317E-02   0.351E-04 -.109E-03 -.143E-03
   -.243E+00 0.155E+00 -.154E-01   0.248E+00 -.158E+00 0.134E-01   -.828E-02 0.443E-02 0.317E-02   -.351E-04 0.109E-03 -.143E-03
   0.111E-01 0.653E-01 0.727E-01   -.170E-01 -.686E-01 -.743E-01   0.861E-02 0.535E-02 0.228E-02   0.635E-04 -.143E-03 -.533E-05
   -.423E-07 -.413E-07 0.320E-03   0.142E-12 -.107E-13 -.870E-13   0.000E+00 -.867E-18 -.347E-02   -.244E-13 -.323E-12 -.295E-04

 POSITION                                       TOTAL-FORCE (eV/Angst)
      9.79255      2.50409      2.50760        -0.002654      0.000463      0.000178
      9.79432      7.51395      7.52256        -0.005807      0.002725     -0.003138
      0.23150      2.50687      7.51676         0.004164      0.001902     -0.001206
      0.23150      7.51860      2.50591         0.004202      0.000870      0.000925
      2.50619      2.50619      9.79093         0.000000      0.000000      0.001676
      2.50619      7.51856      0.23539         0.000000      0.000000     -0.004267
      7.51856      2.50619      0.23176         0.000000      0.000000     -0.001029
      7.51856      7.51856      9.79187         0.000000      0.000000      0.002471
      2.50664      9.79170      2.50479         0.000334      0.001509      0.000130
      2.50505      0.23385      7.51430         0.003663     -0.003105      0.000203
      7.52233      9.79130      7.52052         0.001454      0.002263      0.004312
      7.51854      0.23309      2.50493         0.000325     -0.001607     -0.000431
      2.50619      7.51856      4.78010         0.000000      0.000000      0.002022
      2.50619      2.50619      5.24461         0.000000      0.000000     -0.001394
      7.51856      7.51856      5.24633         0.000000      0.000000     -0.001980
      7.51856      2.50619      4.77800         0.000000      0.000000      0.002021
      2.50733      4.77852      7.51430        -0.003663      0.003105      0.000203
      2.50574      5.24542      2.50479        -0.000334     -0.001509      0.000130
      7.51859      4.77928      2.50493        -0.000325      0.001607     -0.000431
      7.51480      5.24583      7.52052        -0.001454     -0.002263      0.004312
      4.78088      2.50551      7.51676        -0.004164     -0.001902     -0.001206
      4.78088      7.51852      2.50591        -0.004202     -0.000870      0.000925
      5.24458      2.50829      2.50760         0.002654     -0.000463      0.000178
      5.24281      7.52318      7.52256         0.005807     -0.002725     -0.003138
      5.01287      5.01347      5.01240         0.000466     -0.000437     -0.004479
      5.01137      0.00163      0.00055         0.001230     -0.002398     -0.006501
      0.00100      5.01075      0.00055        -0.001230      0.002398     -0.006501
     10.02425     10.02365      5.01240        -0.000466      0.000437     -0.004479
      1.18198      8.83901      6.19671        -0.001463     -0.001226      0.002531
      1.18502      1.18179      3.82909        -0.003139      0.000209      0.000223
      8.83931      8.84075      3.82823         0.003355      0.000393      0.000337
      8.83998      1.18362      6.19486         0.001355      0.002277      0.002898
      8.84136      6.19556      1.18269         0.001298      0.003001      0.003419
      8.84067      3.82920      8.84002         0.003337     -0.000785      0.000679
      1.18909      6.19243      8.84327        -0.008546      0.004003     -0.002702
      1.18329      3.82590      1.18500        -0.000944      0.000256      0.000205
      6.19646      1.18318      8.84002        -0.003337      0.000785      0.000679
      6.19577      8.84157      1.18269        -0.001298     -0.003001      0.003419
      3.82908      1.18647      1.18500         0.000944     -0.000256      0.000205
      3.82328      8.84470      8.84327         0.008546     -0.004003     -0.002702
      6.19782      6.19637      3.82823        -0.003355     -0.000393      0.000337
      6.19714      3.82876      6.19486        -0.001355     -0.002277      0.002898
      3.83040      6.19811      6.19671         0.001463      0.001226      0.002531
      3.82735      3.83059      3.82909         0.003139     -0.000209      0.000223
      7.51856      7.51856      7.51918         0.000000      0.000000      0.000474
      7.51856      2.50619      2.50505         0.000000      0.000000      0.000847
      2.50619      7.51856      2.50745         0.000000      0.000000     -0.000536
      2.50619      2.50619      7.51767         0.000000      0.000000      0.000874
     10.02428     10.02359      0.00013        -0.002747     -0.001886      0.000774
      0.00187      5.01121      5.01251         0.002925     -0.001586      0.001054
      5.01051      0.00117      5.01251        -0.002925      0.001586      0.001054
      5.01284      5.01353      0.00013         0.002747      0.001886      0.000774
    total drift:                               -0.000000     -0.000000     -0.003174

  FREE ENERGIE OF THE ION-ELECTRON SYSTEM (eV)
  free  energy   TOTEN  =      -268.23143018 eV

  energy  without entropy=     -268.23143018  energy(sigma->0) =     -268.23143018

 stress matrix after NEB project (eV)
     -0.41985     -0.00630      0.00000
     -0.00630     -0.23887      0.00000
      0.00000      0.00000     -0.24106
  FORCES: max atom, RMS     0.009816    0.004156
  FORCE total and by dimension    0.029968    0.008546
  Stress total and by dimension    0.539928    0.419851
 Quasi-Newton relaxation of ions (Broydens 2nd method)
  g(Force)  = 0.433E-04   g(Stress)= 0.000E+00

 Reset! Starting new Quasi-Newton update for ions

 reached required accuracy - stopping structural energy minimisation