 vasp.6.4.1 05Apr23 (build Jun 07 2023 15:38:11) complex

 executed on             LinuxIFC date 2023.10.16  22:18:20

 INCAR:
   GGA = PE
   PREC = Accu
   EDIFF = 1.e-6
   EDIFFG = -1.e-3
   ENCUT = 520.
   NELM = 100
   NELMDL = -10
   LASPH = .TRUE.
   LREAL = Auto
   LMAXMIX = 4
   ISPIN = 2
   LDIAG = .TRUE.
   LPLANE = .TRUE.
   IVDW = 12
   SIGMA = 0.03
   ISMEAR = 0
   NSW = 1000    number of steps for IOM
   IBRION = 2    ionic relax: 0-MD 1-quasi-New 2-CG
   ISIF = 2    ionic relaxation + stress tensor calcn.
   LCHARG = .FALSE.
   LWAVE = .FALSE.
   ALGO = F
   KPAR = 1
   NPAR = 4
   POTIM = 0.2

 POTCAR:    PAW_PBE Li_sv_GW 25Mar2010
 POTCAR:    PAW_PBE P_GW 19Mar2012
 POTCAR:    PAW_PBE S_GW 19Mar2012
 POTCAR:    PAW_PBE Cl_GW 19Mar2012
|           W    W    AA    RRRRR   N    N  II  N    N   GGGG   !!!           |
|           W    W   A  A   R    R  NN   N  II  NN   N  G    G  !!!           |
|           W    W  A    A  R    R  N N  N  II  N N  N  G       !!!           |
|           W WW W  AAAAAA  RRRRR   N  N N  II  N  N N  G  GGG   !            |
|           WW  WW  A    A  R   R   N   NN  II  N   NN  G    G                |
|           W    W  A    A  R    R  N    N  II  N    N   GGGG   !!!           |
|     You use a magnetic or noncollinear calculation, but did not specify     |
|     the initial magnetic moment with the MAGMOM tag. Note that a            |
|     default of 1 will be used for all atoms. This ferromagnetic setup       |
|     may break the symmetry of the crystal, in particular it may rule        |
|     out finding an antiferromagnetic solution. Thence, we recommend         |
|     setting the initial magnetic moment manually or verifying carefully     |
|     that this magnetic setup is desired.                                    |

   TITEL  = PAW_PBE Li_sv_GW 25Mar2010
   POMASS =    7.010; ZVAL   =    3.000    mass and valenz
   ENMAX  =  433.699; ENMIN  =  325.274 eV

   TITEL  = PAW_PBE P_GW 19Mar2012
   POMASS =   30.974; ZVAL   =    5.000    mass and valenz
   ENMAX  =  255.040; ENMIN  =  191.280 eV

[...]

   TITEL  = PAW_PBE Cl_GW 19Mar2012
   POMASS =   35.453; ZVAL   =    7.000    mass and valenz
   ENMAX  =  262.472; ENMIN  =  196.854 eV

 Optimization of the real space projectors (new method)

 maximal supplied QI-value         = 25.13
 optimisation between [QCUT,QGAM] = [ 11.56, 23.12] = [ 37.43,149.72] Ry
 Optimized for a Real-space Cutoff    1.28 Angstroem

   l    n(q)    QCUT    max X(q) W(low)/X(q) W(high)/X(q)  e(spline)
   0      9    11.561    87.733    0.11E-03    0.32E-04    0.56E-06
   0      9    11.561    82.800    0.11E-03    0.35E-04    0.56E-06
   0      9    11.561     2.509    0.22E-03    0.42E-04    0.79E-06
   1      8    11.561    12.580    0.94E-04    0.26E-03    0.21E-06
   1      8    11.561     1.319    0.33E-04    0.15E-03    0.19E-06
   2      8    11.561     1.993    0.36E-04    0.89E-04    0.26E-06
 Optimization of the real space projectors (new method)

[...]

   l    n(q)    QCUT    max X(q) W(low)/X(q) W(high)/X(q)  e(spline)
   0     10    11.508     7.541    0.34E-04    0.13E-04    0.69E-07
   0     10    11.508     1.809    0.49E-04    0.27E-04    0.14E-06
   1     10    11.508     4.107    0.27E-05    0.41E-05    0.14E-06
   1     10    11.508     2.196    0.26E-05    0.25E-05    0.22E-06
   2      9    11.508     4.265    0.18E-03    0.11E-03    0.81E-06
   2      9    11.508     1.925    0.97E-04    0.76E-04    0.47E-06
 Optimization of the real space projectors (new method)

 maximal supplied QI-value         = 19.84
 optimisation between [QCUT,QGAM] = [ 11.51, 23.22] = [ 37.09,150.92] Ry
 Optimized for a Real-space Cutoff    1.21 Angstroem

   l    n(q)    QCUT    max X(q) W(low)/X(q) W(high)/X(q)  e(spline)
   0      8    11.508     6.761    0.57E-04    0.57E-04    0.35E-07
   0      8    11.508     1.642    0.14E-03    0.14E-03    0.91E-07
   1      8    11.508     3.519    0.20E-04    0.72E-04    0.47E-07
   1      8    11.508     2.150    0.27E-04    0.11E-03    0.89E-07
   2      7    11.508     2.976    0.19E-03    0.33E-03    0.16E-06
   2      7    11.508     1.494    0.14E-03    0.29E-03    0.14E-06
  PAW_PBE Li_sv_GW 25Mar2010            :
  PAW_PBE P_GW 19Mar2012                :
  PAW_PBE S_GW 19Mar2012                :
  PAW_PBE Cl_GW 19Mar2012               :

 POSCAR: Li24 P4 S20 Cl4
  positions in direct lattice
  velocities in cartesian coordinates
 exchange correlation table for  LEXCH =        8
   RHO(1)=    0.500       N(1)  =     2000
   RHO(2)=  100.500       N(2)  =     4000

 VTST: version 4.1, (05/19/21)

 CHAIN: initializing optimizer

 OPT: Using VASP Conjugate-Gradient optimizer
 CHAIN: Read ICHAIN            0

 POSCAR: Li24 P4 S20 Cl4
  positions in direct lattice
  velocities in cartesian coordinates

 ion  position               nearest neighbor table
   1  0.971  0.268  0.232-
   2  0.984  0.768  0.732-
   3  0.025  0.189  0.837-
   4  0.025  0.663  0.311-
   5  0.337  0.300  0.968-
   6  0.217  0.776  0.028-
   7  0.686  0.299  0.014-
   8  0.825  0.815  0.975-
   9  0.180  0.972  0.203-
  10  0.224  0.011  0.810-
  11  0.701  0.975  0.708-
  12  0.789  0.025  0.227-
  13  0.224  0.690  0.488-
  14  0.180  0.297  0.528-
  15  0.701  0.792  0.525-
  16  0.789  0.273  0.475-
  17  0.217  0.472  0.724-
  18  0.337  0.531  0.200-
  19  0.686  0.486  0.201-
  20  0.825  0.525  0.685-
  21  0.466  0.178  0.674-
  22  0.466  0.826  0.322-
  23  0.523  0.176  0.324-
  24  0.548  0.656  0.844-
  25  0.504  0.494  0.511-  43 2.05  42 2.05  44 2.05  41 2.06
  26  0.504  0.989  0.006-  40 2.05  38 2.05  39 2.05  37 2.06
  27  0.003  0.501  0.999-  33 2.05  34 2.05  35 2.05  36 2.05
  28  0.009  0.998  0.502-  29 2.05  32 2.05  31 2.05  30 2.06
  29  0.152  0.888  0.612-  28 2.05
  30  0.113  0.129  0.371-  28 2.06
  31  0.892  0.867  0.385-  28 2.05
  32  0.892  0.115  0.632-  28 2.05
  33  0.879  0.620  0.122-  27 2.05
  34  0.879  0.378  0.880-  27 2.05
  35  0.119  0.626  0.874-  27 2.05
  36  0.139  0.386  0.114-  27 2.05
  37  0.613  0.117  0.879-  26 2.06
  38  0.631  0.871  0.127-  26 2.05
  39  0.378  0.107  0.128-  26 2.05
  40  0.395  0.857  0.883-  26 2.05
  41  0.613  0.621  0.382-  25 2.06
  42  0.631  0.373  0.629-  25 2.05
  43  0.395  0.617  0.643-  25 2.05
  44  0.378  0.372  0.393-  25 2.05
  45  0.755  0.746  0.753-
  46  0.740  0.254  0.245-
  47  0.248  0.746  0.259-
  48  0.248  0.241  0.754-
  49  0.030  0.979  0.992-
  50  0.030  0.508  0.520-
  51  0.540  0.996  0.504-
  52  0.508  0.480  0.020-

  LATTYP: Found a simple cubic cell.
 ALAT       =     9.7155388862

  Lattice vectors:

 A1 = (   9.7155388862,   0.0000000000,   0.0000000000)
 A2 = (   0.0000000000,   9.7155388862,   0.0000000000)
 A3 = (   0.0000000000,   0.0000000000,   9.7155388862)

Analysis of symmetry for initial positions (statically):
 Subroutine PRICEL returns:
 Original cell was already a primitive cell.

 Routine SETGRP: Setting up the symmetry group for a
 simple cubic supercell.

 Subroutine GETGRP returns: Found  2 space group operations
 (whereof  1 operations were pure point group operations)
 out of a pool of 48 trial point group operations.

The static configuration has the point symmetry C_1 .
 The point group associated with its full space group is C_1h.

Analysis of symmetry for dynamics (positions and initial velocities):
 Subroutine PRICEL returns:
 Original cell was already a primitive cell.

[...]

The dynamic configuration has the point symmetry C_1 .
 The point group associated with its full space group is C_1h.

Analysis of structural, dynamic, and magnetic symmetry:
 Subroutine PRICEL returns:
 Original cell was already a primitive cell.

 Routine SETGRP: Setting up the symmetry group for a
 simple cubic supercell.

 Subroutine GETGRP returns: Found  2 space group operations
 (whereof  1 operations were pure point group operations)
 out of a pool of 48 trial point group operations.

The overall configuration has the point symmetry C_1 .
 The point group associated with its full space group is C_1h.

 Subroutine INISYM returns: Found  2 space group operations
 (whereof  1 operations are pure point group operations),
 and found     1 'primitive' translations

                                     Primitive cell

  volume of cell :     917.0662

  direct lattice vectors                    reciprocal lattice vectors
     9.715538886  0.000000000  0.000000000     0.102927898  0.000000000  0.000000000
     0.000000000  9.715538886  0.000000000     0.000000000  0.102927898  0.000000000
     0.000000000  0.000000000  9.715538886     0.000000000  0.000000000  0.102927898

  length of vectors
     9.715538886  9.715538886  9.715538886     0.102927898  0.102927898  0.102927898

  position of ions in fractional coordinates (direct lattice)
     0.971140400  0.267873292  0.231992302
     0.984483516  0.767988807  0.731876787
     0.024933984  0.189186543  0.836894024
     0.024933984  0.662971570  0.310679050
     0.337098016  0.300189980  0.968477680
     0.217013713  0.775762906  0.028080575
     0.685531356  0.299248276  0.014188824
     0.825100362  0.814923514  0.975154426
     0.179840453  0.971669171  0.202526103
     0.223726223  0.011435883  0.809652106
     0.701220931  0.974953220  0.707987430
     0.788797079  0.024658454  0.226849449
     0.223726223  0.690213488  0.488429711
     0.179840453  0.297339491  0.528196423
     0.701220931  0.791878164  0.524912374
     0.788797079  0.273016145  0.475207140
     0.217013713  0.471785019  0.724102688
     0.337098016  0.531387914  0.199675614
     0.685531356  0.485676770  0.200617318
     0.825100362  0.524711168  0.684942080
     0.466151194  0.178215448  0.673789330
     0.466151194  0.826076263  0.321650146
     0.523153487  0.175883169  0.323982425
     0.548483280  0.655840234  0.844025360
     0.503737957  0.493736889  0.511334405
     0.503737957  0.988531189  0.006128705
     0.002863182  0.500767129  0.999098465
     0.009489608  0.998221951  0.501643643
     0.151651988  0.888221961  0.611643633
     0.112604679  0.129066275  0.370799319
     0.891510419  0.867483396  0.384668702
     0.891510419  0.115196892  0.632382198
     0.879456744  0.619500942  0.122343533
     0.879456744  0.377522061  0.880364651
     0.118565911  0.625657055  0.874208539
     0.138816673  0.386191838  0.113673756
     0.613299498  0.117430783  0.878653163
     0.630655978  0.870512893  0.127254888
     0.377841786  0.106912910  0.128076555
     0.394678630  0.857358887  0.882629123
     0.613299498  0.621212431  0.382434811
     0.630655978  0.372610706  0.629352700
     0.394678630  0.617236470  0.642506707
     0.377841786  0.371789039  0.392952683
     0.754676685  0.746496501  0.753369093
     0.739710803  0.254491251  0.245374343
     0.247586809  0.746358861  0.258970274
     0.247586809  0.240895320  0.753506733
     0.029991358  0.979366133  0.991643028
     0.029991358  0.508222566  0.520499461
     0.539590811  0.995990125  0.503875469
     0.508270615  0.479531098  0.020334496

  ion indices of the primitive-cell ions
   primitive index   ion index
                 1           1
                 2           2
[...]
      5     -42.5956      1.00000
      6     -42.5943      1.00000
      7     -42.5589      1.00000
      8     -42.5466      1.00000
      9     -42.5142      1.00000
     10     -42.5133      1.00000
     11     -42.5133      1.00000
     12     -42.4960      1.00000
     13     -42.4937      1.00000
     14     -42.4655      1.00000
     15     -42.4655      1.00000
     16     -42.4406      1.00000
     17     -42.4383      1.00000
     18     -42.4383      1.00000
     19     -42.4245      1.00000
     20     -42.4200      1.00000
     21     -42.4002      1.00000
     22     -42.3882      1.00000
     23     -42.3587      1.00000
     24     -42.3585      1.00000
     25     -13.1919      1.00000
     26     -13.1681      1.00000
     27     -13.1146      1.00000
     28     -13.0973      1.00000
     29     -12.5940      1.00000
     30     -12.5319      1.00000
     31     -12.5292      1.00000
     32     -12.4227      1.00000
     33     -10.4014      1.00000
     34     -10.3803      1.00000
     35     -10.3687      1.00000
     36     -10.2461      1.00000
     37     -10.1834      1.00000
     38     -10.1710      1.00000
     39     -10.1466      1.00000
     40     -10.1424      1.00000
     41     -10.1158      1.00000
     42     -10.1032      1.00000
     43     -10.0797      1.00000
     44     -10.0256      1.00000
     45      -8.6589      1.00000
     46      -8.4669      1.00000
     47      -8.4139      1.00000
     48      -8.4118      1.00000
     49      -6.2453      1.00000
     50      -5.8656      1.00000
     51      -5.8295      1.00000
     52      -5.7738      1.00000
     53      -3.3446      1.00000
     54      -3.3168      1.00000
     55      -3.3023      1.00000
     56      -2.9533      1.00000
     57      -2.8247      1.00000
     58      -2.8189      1.00000
     59      -2.6534      1.00000
     60      -2.6379      1.00000
[...]
    162       8.9163      0.00000
    163       8.9858      0.00000
    164       9.0846      0.00000
    165       9.1353      0.00000
    166       9.1611      0.00000
    167       9.2646      0.00000
    168       9.3259      0.00000
    169       9.3489      0.00000
    170       9.3578      0.00000
    171       9.4377      0.00000
    172       9.5303      0.00000
    173       9.5523      0.00000
    174       9.5939      0.00000
    175       9.6971      0.00000
    176       9.7307      0.00000

[...]

 soft charge-density along one line, spin component           2
         0         1         2         3         4         5         6         7         8         9
 total charge-density along one line

------------------------ aborting loop because EDIFF is reached ----------------------------------------

         DFTD3 V3.0 Rev 1
 Edisp (eV)  -13.33718

 E6    (eV) :    -8.2172
 E8    (eV) :    -5.1200
 % E8        : 38.39

  FORCE on cell =-STRESS in cart. coord.  units (eV):
  Direction    XX          YY          ZZ          XY          YZ          ZX
  Alpha Z   296.00645   296.00645   296.00645
  Ewald   -2976.07161 -2877.21519 -2877.21519   -32.70889     2.95119    32.70889
  Hartree   723.32036   769.99992   769.99993   -16.65126    -5.10741    16.65126
  E(xc)    -947.82827  -947.65365  -947.65364    -0.07706    -0.04770     0.07706
  Local   -1456.15424 -1592.94841 -1592.94842    46.96640     4.09349   -46.96640
  n-local  1481.17473  1481.49450  1481.37653    -0.49859     0.19556    -0.47720
  augment  -356.87045  -356.54339  -356.54337    -0.13744    -0.35523     0.14174
  Kinetic  3249.53043  3241.69348  3241.51955     2.31355     3.34817    -3.72672
  Fock        0.00000     0.00000     0.00000     0.00000     0.00000     0.00000
  vdW       -14.14592   -14.17630   -14.17630    -0.02187     0.01705     0.02187
  Total      -1.03851     0.51147     0.51147     0.37717     5.09488    -0.37717
  in kB      -1.81434     0.89357     0.89357     0.65893     8.90111    -0.65894

 VOLUME and BASIS-vectors are now :
  energy-cutoff  :      520.00
  volume of cell :      917.07
      direct lattice vectors                 reciprocal lattice vectors
     9.715538886  0.000000000  0.000000000     0.102927898  0.000000000  0.000000000
     0.000000000  9.715538886  0.000000000     0.000000000  0.102927898  0.000000000
     0.000000000  0.000000000  9.715538886     0.000000000  0.000000000  0.102927898

  length of vectors
     9.715538886  9.715538886  9.715538886     0.102927898  0.102927898  0.102927898

 FORCES acting on ions
    electron-ion (+dipol)            ewald-force                    non-local-force                 convergence-correction
   -.459E+00 -.100E+01 0.100E+01   -.209E+00 0.848E+00 -.848E+00   0.661E+00 0.151E+00 -.151E+00   0.434E-03 0.914E-04 -.914E-04
   0.204E+01 -.246E+01 0.246E+01   -.289E+01 0.224E+01 -.224E+01   0.846E+00 0.219E+00 -.219E+00   0.335E-04 -.262E-04 0.262E-04
   0.107E+02 0.480E+01 -.132E+02   -.101E+02 -.346E+01 0.121E+02   -.649E+00 -.134E+01 0.114E+01   0.160E-03 -.552E-04 -.197E-04
   0.107E+02 0.132E+02 -.480E+01   -.101E+02 -.121E+02 0.346E+01   -.649E+00 -.114E+01 0.134E+01   0.160E-03 0.197E-04 0.552E-04
   -.381E+01 -.551E+01 -.112E+00   0.279E+01 0.468E+01 -.897E+00   0.103E+01 0.825E+00 0.101E+01   -.726E-04 -.990E-04 0.122E-03
   -.298E+01 0.254E+01 -.320E+01   0.377E+01 -.361E+01 0.376E+01   -.795E+00 0.108E+01 -.553E+00   -.122E-04 0.770E-04 0.435E-04
   -.441E+01 0.225E+01 0.669E+01   0.497E+01 -.329E+01 -.633E+01   -.563E+00 0.104E+01 -.356E+00   -.176E-03 0.441E-04 0.740E-04
   -.388E+00 -.133E+02 -.522E+01   -.627E+00 0.120E+02 0.445E+01   0.101E+01 0.131E+01 0.768E+00   0.759E-04 -.122E-03 -.155E-03
   0.500E+01 -.687E+01 -.238E+01   -.401E+01 0.642E+01 0.346E+01   -.985E+00 0.448E+00 -.107E+01   0.292E-03 0.178E-05 -.136E-03
   -.235E+01 -.119E+01 0.137E+01   0.327E+01 0.185E+01 -.254E+01   -.924E+00 -.648E+00 0.117E+01   -.554E-04 -.530E-04 0.191E-03
   0.258E+01 -.405E+01 -.345E+01   -.180E+01 0.340E+01 0.454E+01   -.780E+00 0.646E+00 -.109E+01   0.138E-03 0.100E-03 0.247E-04
   -.130E+02 -.173E+01 0.125E+02   0.116E+02 0.229E+01 -.118E+02   0.138E+01 -.555E+00 -.678E+00   -.633E-03 0.894E-05 0.744E-03
   -.235E+01 -.137E+01 0.119E+01   0.327E+01 0.254E+01 -.185E+01   -.924E+00 -.117E+01 0.648E+00   -.554E-04 -.191E-03 0.530E-04
   0.500E+01 0.238E+01 0.687E+01   -.401E+01 -.346E+01 -.642E+01   -.985E+00 0.107E+01 -.448E+00   0.292E-03 0.136E-03 -.178E-05
   0.258E+01 0.345E+01 0.405E+01   -.180E+01 -.454E+01 -.340E+01   -.780E+00 0.109E+01 -.646E+00   0.138E-03 -.247E-04 -.100E-03
   -.130E+02 -.125E+02 0.173E+01   0.116E+02 0.118E+02 -.229E+01   0.138E+01 0.678E+00 0.555E+00   -.633E-03 -.744E-03 -.894E-05
   -.298E+01 0.320E+01 -.254E+01   0.377E+01 -.376E+01 0.361E+01   -.795E+00 0.553E+00 -.108E+01   -.122E-04 -.435E-04 -.770E-04
   -.381E+01 0.112E+00 0.551E+01   0.279E+01 0.897E+00 -.468E+01   0.103E+01 -.101E+01 -.825E+00   -.726E-04 -.122E-03 0.990E-04
   -.441E+01 -.669E+01 -.225E+01   0.497E+01 0.633E+01 0.329E+01   -.563E+00 0.356E+00 -.104E+01   -.176E-03 -.740E-04 -.441E-04
   -.388E+00 0.522E+01 0.133E+02   -.627E+00 -.445E+01 -.120E+02   0.101E+01 -.768E+00 -.131E+01   0.759E-04 0.155E-03 0.122E-03
   0.400E+01 0.622E+01 0.951E+01   -.504E+01 -.537E+01 -.826E+01   0.105E+01 -.850E+00 -.126E+01   -.178E-03 0.125E-03 -.181E-04
   0.400E+01 -.951E+01 -.622E+01   -.504E+01 0.826E+01 0.537E+01   0.105E+01 0.126E+01 0.850E+00   -.178E-03 0.180E-04 -.125E-03
   0.840E+01 0.597E+01 -.597E+01   -.771E+01 -.508E+01 0.508E+01   -.691E+00 -.888E+00 0.888E+00   -.615E-04 0.127E-03 -.127E-03
   -.215E+01 0.101E+02 -.101E+02   0.283E+01 -.902E+01 0.902E+01   -.687E+00 -.104E+01 0.104E+01   -.252E-03 -.303E-04 0.303E-04
   -.756E+01 0.464E+01 -.499E+00   0.732E+01 -.454E+01 0.798E+00   0.240E+00 -.103E+00 -.298E+00   -.239E-03 -.145E-03 0.478E-04
   -.756E+01 0.499E+00 -.464E+01   0.732E+01 -.798E+00 0.454E+01   0.240E+00 0.298E+00 0.103E+00   -.239E-03 -.478E-04 0.145E-03
   0.439E+01 0.900E+01 -.900E+01   -.459E+01 -.900E+01 0.900E+01   0.196E+00 -.772E-02 0.772E-02   0.259E-03 0.938E-04 -.938E-04
   -.259E+01 -.433E+01 0.433E+01   0.265E+01 0.414E+01 -.414E+01   -.548E-01 0.195E+00 -.195E+00   0.273E-04 -.163E-03 0.163E-03
   -.727E+02 0.157E+02 -.157E+02   0.773E+02 -.181E+02 0.181E+02   -.467E+01 0.241E+01 -.241E+01   0.455E-04 -.284E-04 0.284E-04
   -.463E+02 -.401E+02 0.401E+02   0.497E+02 0.430E+02 -.430E+02   -.347E+01 -.290E+01 0.290E+01   0.560E-03 0.134E-03 -.134E-03
   0.346E+02 0.450E+02 0.459E+02   -.374E+02 -.484E+02 -.492E+02   0.286E+01 0.341E+01 0.330E+01   -.123E-04 -.124E-04 0.293E-03
   0.346E+02 -.459E+02 -.450E+02   -.374E+02 0.492E+02 0.484E+02   0.286E+01 -.330E+01 -.341E+01   -.123E-04 -.293E-03 0.124E-04
   0.469E+02 -.344E+02 -.464E+02   -.501E+02 0.376E+02 0.494E+02   0.323E+01 -.326E+01 -.291E+01   0.199E-03 -.139E-04 -.488E-04
   0.469E+02 0.464E+02 0.344E+02   -.501E+02 -.494E+02 -.376E+02   0.323E+01 0.291E+01 0.326E+01   0.199E-03 0.488E-04 0.139E-04
   -.419E+02 -.296E+02 0.296E+02   0.454E+02 0.325E+02 -.325E+02   -.355E+01 -.293E+01 0.293E+01   0.381E-03 -.156E-03 0.156E-03
   -.403E+02 0.445E+02 -.445E+02   0.433E+02 -.476E+02 0.476E+02   -.304E+01 0.312E+01 -.312E+01   0.483E-03 -.289E-03 0.289E-03
   -.469E+02 -.417E+02 0.315E+02   0.498E+02 0.453E+02 -.344E+02   -.288E+01 -.356E+01 0.288E+01   -.206E-03 -.503E-04 -.762E-04
   -.356E+02 0.504E+02 -.341E+02   0.381E+02 -.543E+02 0.369E+02   -.245E+01 0.389E+01 -.278E+01   -.685E-03 0.773E-04 -.972E-04
   0.423E+02 -.424E+02 -.497E+02   -.456E+02 0.455E+02 0.527E+02   0.327E+01 -.312E+01 -.302E+01   -.337E-03 0.220E-03 0.654E-05
   0.134E+02 0.479E+02 0.524E+02   -.152E+02 -.512E+02 -.562E+02   0.184E+01 0.327E+01 0.381E+01   -.193E-03 -.110E-03 -.154E-03
   -.469E+02 -.315E+02 0.417E+02   0.498E+02 0.344E+02 -.453E+02   -.288E+01 -.288E+01 0.356E+01   -.206E-03 0.762E-04 0.503E-04
   -.356E+02 0.341E+02 -.504E+02   0.381E+02 -.369E+02 0.543E+02   -.245E+01 0.278E+01 -.389E+01   -.685E-03 0.972E-04 -.773E-04
   0.134E+02 -.524E+02 -.479E+02   -.152E+02 0.562E+02 0.512E+02   0.184E+01 -.381E+01 -.327E+01   -.193E-03 0.154E-03 0.110E-03
   0.423E+02 0.497E+02 0.424E+02   -.456E+02 -.527E+02 -.455E+02   0.327E+01 0.302E+01 0.312E+01   -.337E-03 -.653E-05 -.220E-03
   0.154E+02 0.102E+02 -.102E+02   -.159E+02 -.105E+02 0.105E+02   0.473E+00 0.312E+00 -.312E+00   0.325E-03 -.229E-04 0.229E-04
   -.659E+01 0.711E-01 -.711E-01   0.626E+01 -.319E-01 0.319E-01   0.343E+00 -.375E-01 0.375E-01   -.119E-02 -.254E-03 0.254E-03
   -.105E+02 -.379E+01 -.351E+01   0.107E+02 0.385E+01 0.357E+01   -.201E+00 -.649E-01 -.559E-01   0.200E-03 0.896E-05 -.166E-03
   -.105E+02 0.351E+01 0.379E+01   0.107E+02 -.357E+01 -.385E+01   -.201E+00 0.559E-01 0.649E-01   0.200E-03 0.166E-03 -.896E-05
   0.376E+02 -.259E+02 -.176E+02   -.382E+02 0.261E+02 0.178E+02   0.566E+00 -.198E+00 -.231E+00   0.212E-02 -.609E-03 -.137E-02
   0.376E+02 0.176E+02 0.259E+02   -.382E+02 -.178E+02 -.261E+02   0.566E+00 0.231E+00 0.198E+00   0.212E-02 0.137E-02 0.609E-03
   0.392E+02 -.117E+01 0.117E+01   -.399E+02 0.108E+01 -.108E+01   0.712E+00 0.910E-01 -.910E-01   0.556E-03 0.963E-03 -.963E-03
   0.452E+01 -.201E+02 0.201E+02   -.466E+01 0.206E+02 -.206E+02   0.146E+00 -.486E+00 0.486E+00   -.311E-03 0.814E-04 -.814E-04
   0.271E+00 -.659E+00 0.659E+00   0.897E-13 -.249E-13 -.604E-13   -.295E+00 0.653E+00 -.653E+00   0.207E-02 0.607E-03 -.607E-03

 POSITION                                       TOTAL-FORCE (eV/Angst)
      9.43528      2.60260      2.25386         0.000354      0.000167     -0.000167
      9.56467      7.46150      7.11050        -0.000162      0.000169     -0.000169
      0.24218      1.83801      8.13090         0.000097      0.000090     -0.000063
      0.24218      6.44110      3.01845         0.000097      0.000063     -0.000090
      3.27521      2.91647      9.40925        -0.000021      0.000024     -0.000064
      2.10841      7.53686      0.27285         0.000057      0.000028     -0.000040
      6.66030      2.90737      0.13788         0.000150     -0.000061     -0.000073
      8.01622      7.91738      9.47412        -0.000084     -0.000091     -0.000065
      1.74725      9.44028      1.96767         0.000050     -0.000046      0.000029
      2.17356      0.11107      7.86629         0.000136      0.000011     -0.000211
      6.81263      9.47224      6.87841        -0.000061      0.000077      0.000015
      7.66431      0.23962      2.20327        -0.000636     -0.000002      0.000597
      2.17356      6.70572      4.74539         0.000136      0.000211     -0.000011
      1.74725      2.88879      5.13172         0.000050     -0.000029      0.000046
      6.81263      7.69359      5.09976        -0.000061     -0.000015     -0.000077
      7.66431      2.65319      4.61685        -0.000636     -0.000597      0.000002
      2.10841      4.58361      7.03515         0.000057      0.000040     -0.000028
      3.27521      5.16275      1.93999        -0.000021      0.000064     -0.000024
      6.66030      4.71859      1.94909         0.000150      0.000073      0.000061
      8.01622      5.09788      6.65462        -0.000084      0.000065      0.000091
      4.52886      1.73140      6.54617         0.000218      0.000084      0.000124
      4.52886      8.02583      3.12507         0.000218     -0.000124     -0.000084
      5.08293      1.70864      3.14783         0.000314      0.000001     -0.000001
      5.32875      6.37183      8.20018         0.000167      0.000024     -0.000024
      4.89402      4.79684      4.96786         0.000529      0.000538      0.000144
      4.89402      9.60414      0.05963         0.000529     -0.000144     -0.000538
      0.02783      4.86521      9.70679        -0.000202      0.000112     -0.000112
      0.09210      9.69826      4.87374        -0.000245     -0.000226      0.000226
      1.47343      8.62953      5.94247        -0.000505      0.000184     -0.000184
      1.09405      1.25394      3.60252        -0.000185     -0.000020      0.000020
      8.66145      8.42804      3.73721        -0.000352     -0.000199     -0.000247
      8.66145      1.11926      6.14396        -0.000352      0.000247      0.000199
      8.54434      6.01884      1.18864         0.000111     -0.000066     -0.000021
      8.54434      3.66782      8.55317         0.000111      0.000021      0.000066
      1.15186      6.07871      8.49330         0.000092      0.000177     -0.000177
      1.34881      3.75213      1.10434         0.000182     -0.000105      0.000105
      5.95852      1.14095      8.53660        -0.000105     -0.000166      0.000181
      6.12725      8.45751      1.23646         0.000112      0.000096      0.000080
      3.67097      1.03876      1.24448        -0.000394      0.000344      0.000425
      3.83447      8.32968      8.57528         0.000040      0.000063      0.000146
      5.95852      6.03540      3.71551        -0.000105     -0.000181      0.000166
      6.12725      3.62001      6.11449         0.000112     -0.000080     -0.000096
      3.83447      5.99672      6.24233         0.000040     -0.000146     -0.000063
      3.67097      3.61198      3.81770        -0.000394     -0.000425     -0.000344
      7.33197      7.25261      7.31939         0.000150      0.000117     -0.000117
      7.18680      2.47250      2.38396         0.000281     -0.000016      0.000016
      2.40539      7.25126      2.51608         0.000070     -0.000022      0.000017
      2.40539      2.34038      7.32074         0.000070     -0.000017      0.000022
      0.29107      9.51518      9.63459        -0.000142     -0.000017      0.000251
      0.29107      4.93741      5.05682        -0.000142     -0.000251      0.000017
      5.24225      9.67645      4.89555         0.000082     -0.000106      0.000106
      4.93811      4.65891      0.19755         0.000126      0.000061     -0.000061
    total drift:                               -0.022327     -0.005862      0.005849

  FREE ENERGIE OF THE ION-ELECTRON SYSTEM (eV)
  free  energy   TOTEN  =      -271.99260205 eV

  energy  without entropy=     -271.99260205  energy(sigma->0) =     -271.99260205

 d Force = 0.8009751E-06[-0.539E-06, 0.214E-05]  d Energy = 0.5113931E-05-0.431E-05
 d Force = 0.1663213E-01[ 0.166E-01, 0.166E-01]  d Ewald  = 0.1663298E-01-0.851E-06

 stress matrix after NEB project (eV)
     -1.03851      0.37717     -0.37717
      0.37717      0.51147      5.09488
     -0.37717      5.09488      0.51147
  FORCES: max atom, RMS     0.000872    0.000347
  FORCE total and by dimension    0.002504    0.000636
  Stress total and by dimension    7.354345    5.094884

 reached required accuracy - stopping structural energy minimisation